8000
8000
0 0 0 1
-0.05 0.05 0.05 1
-0.1 0.1 0.1 1
-0.15 0.15 0.15 1
-0.2 0.2 0.2 1
-0.25 0.25 0.25 1
-0.3 0.3 0.3 1
-0.35 0.35 0.35 1
-0.4 0.4 0.4 1
-0.45 0.45 0.45 1
-0.5 0.5 0.5 1
0.45 -0.45 -0.45 1
0.4 -0.4 -0.4 1
0.35 -0.35 -0.35 1
0.3 -0.3 -0.3 1
0.25 -0.25 -0.25 1
0.2 -0.2 -0.2 1
0.15 -0.15 -0.15 1
0.1 -0.1 -0.1 1
0.05 -0.05 -0.05 1
0.05 -0.05 0.05 1
0 0 0.1 1
-0.05 0.05 0.15 1
-0.1 0.1 0.2 1
-0.15 0.15 0.25 1
-0.2 0.2 0.3 1
-0.25 0.25 0.35 1
-0.3 0.3 0.4 1
-0.35 0.35 0.45 1
-0.4 0.4 0.5 1
-0.45 0.45 0.55 1
0.5 -0.5 -0.4 1
0.45 -0.45 -0.35 1
0.4 -0.4 -0.3 1
0.35 -0.35 -0.25 1
0.3 -0.3 -0.2 1
0.25 -0.25 -0.15 1
0.2 -0.2 -0.1 1
0.15 -0.15 -0.05 1
0.1 -0.1 0 1
0.1 -0.1 0.1 1
0.05 -0.05 0.15 1
0 0 0.2 1
-0.05 0.05 0.25 1
-0.1 0.1 0.3 1
-0.15 0.15 0.35 1
-0.2 0.2 0.4 1
-0.25 0.25 0.45 1
-0.3 0.3 0.5 1
-0.35 0.35 0.55 1
-0.4 0.4 0.6 1
0.55 -0.55 -0.35 1
0.5 -0.5 -0.3 1
0.45 -0.45 -0.25 1
0.4 -0.4 -0.2 1
0.35 -0.35 -0.15 1
0.3 -0.3 -0.1 1
0.25 -0.25 -0.05 1
0.2 -0.2 -1.11022302462516e-16 1
0.15 -0.15 0.05 1
0.15 -0.15 0.15 1
0.1 -0.1 0.2 1
0.05 -0.05 0.25 1
0 0 0.3 1
-0.05 0.05 0.35 1
-0.1 0.1 0.4 1
-0.15 0.15 0.45 1
-0.2 0.2 0.5 1
-0.25 0.25 0.55 1
-0.3 0.3 0.6 1
-0.35 0.35 0.65 1
-0.4 0.4 0.7 1
0.55 -0.55 -0.25 1
0.5 -0.5 -0.2 1
0.45 -0.45 -0.15 1
0.4 -0.4 -0.1 1
0.35 -0.35 -0.05 1
0.3 -0.3 0 1
0.25 -0.25 0.0499999999999998 1
0.2 -0.2 0.1 1
0.2 -0.2 0.2 1
0.15 -0.15 0.25 1
0.1 -0.1 0.3 1
0.05 -0.05 0.35 1
0 0 0.4 1
-0.05 0.05 0.45 1
-0.1 0.1 0.5 1
-0.15 0.15 0.55 1
-0.2 0.2 0.6 1
-0.25 0.25 0.65 1
-0.3 0.3 0.7 1
-0.35 0.35 0.75 1
0.6 -0.6 -0.2 1
0.55 -0.55 -0.15 1
0.5 -0.5 -0.1 1
0.45 -0.45 -0.05 1
0.4 -0.4 0 1
0.35 -0.35 0.05 1
0.3 -0.3 0.0999999999999999 1
0.25 -0.25 0.15 1
0.25 -0.25 0.25 1
0.2 -0.2 0.3 1
0.15 -0.15 0.35 1
0.1 -0.1 0.4 1
0.05 -0.05 0.45 1
0 0 0.5 1
-0.05 0.05 0.55 1
-0.1 0.1 0.6 1
-0.15 0.15 0.65 1
-0.2 0.2 0.7 1
-0.25 0.25 0.75 1
-0.3 0.3 0.8 1
0.65 -0.65 -0.15 1
0.6 -0.6 -0.1 1
0.55 -0.55 -0.05 1
0.5 -0.5 0 1
0.45 -0.45 0.0499999999999998 1
0.4 -0.4 0.1 1
0.35 -0.35 0.15 1
0.3 -0.3 0.2 1
0.3 -0.3 0.3 1
0.25 -0.25 0.35 1
0.2 -0.2 0.4 1
0.15 -0.15 0.45 1
0.1 -0.1 0.5 1
0.05 -0.05 0.55 1
0 0 0.6 1
-0.05 0.05 0.65 1
-0.1 0.1 0.7 1
-0.15 0.15 0.75 1
-0.2 0.2 0.8 1
-0.25 0.25 0.85 1
-0.3 0.3 0.9 1
0.65 -0.65 -0.05 1
0.6 -0.6 0 1
0.55 -0.55 0.05 1
0.5 -0.5 0.1 1
0.45 -0.45 0.15 1
0.4 -0.4 0.2 1
0.35 -0.35 0.25 1
0.35 -0.35 0.35 1
0.3 -0.3 0.4 1
0.25 -0.25 0.45 1
0.2 -0.2 0.5 1
0.15 -0.15 0.55 1
0.1 -0.1 0.6 1
0.05 -0.05 0.65 1
0 0 0.7 1
-0.05 0.05 0.75 1
-0.1 0.1 0.8 1
-0.15 0.15 0.85 1
-0.2 0.2 0.9 1
-0.25 0.25 0.95 1
0.7 -0.7 0 1
0.65 -0.65 0.05 1
0.6 -0.6 0.1 1
0.55 -0.55 0.15 1
0.5 -0.5 0.2 1
0.45 -0.45 0.25 1
0.4 -0.4 0.3 1
0.4 -0.4 0.4 1
0.35 -0.35 0.45 1
0.3 -0.3 0.5 1
0.25 -0.25 0.55 1
0.2 -0.2 0.6 1
0.15 -0.15 0.65 1
0.1 -0.1 0.7 1
0.05 -0.05 0.75 1
0 0 0.8 1
-0.05 0.05 0.85 1
-0.0999999999999999 0.0999999999999999 0.9 1
-0.15 0.15 0.95 1
-0.2 0.2 1 1
-0.25 0.25 -0.95 1
-0.3 0.3 -0.9 1
0.65 -0.65 0.15 1
0.6 -0.6 0.2 1
0.55 -0.55 0.25 1
0.5 -0.5 0.3 1
0.45 -0.45 0.35 1
0.45 -0.45 0.45 1
0.4 -0.4 0.5 1
0.35 -0.35 0.55 1
0.3 -0.3 0.6 1
0.25 -0.25 0.65 1
0.2 -0.2 0.7 1
0.15 -0.15 0.75 1
0.1 -0.1 0.8 1
0.05 -0.05 0.85 1
0 0 0.9 1
-0.0499999999999999 0.0499999999999999 0.95 1
-0.0999999999999999 0.0999999999999999 1 1
-0.15 0.15 -0.95 1
-0.2 0.2 -0.9 1
-0.25 0.25 -0.85 1
-0.3 0.3 -0.8 1
-0.35 0.35 -0.75 1
-0.4 0.4 -0.7 1
0.55 -0.55 0.35 1
0.5 -0.5 0.4 1
0.5 -0.5 0.5 1
0.45 -0.45 0.55 1
0.4 -0.4 0.6 1
0.35 -0.35 0.65 1
0.3 -0.3 0.7 1
0.25 -0.25 0.75 1
0.2 -0.2 0.8 1
0.15 -0.15 0.85 1
0.0999999999999999 -0.0999999999999999 0.9 1
0.0499999999999999 -0.0499999999999999 0.95 1
0 0 1 1
-0.05 0.05 -0.95 1
-0.0999999999999999 0.0999999999999999 -0.9 1
-0.15 0.15 -0.85 1
-0.2 0.2 -0.8 1
-0.25 0.25 -0.75 1
-0.3 0.3 -0.7 1
-0.35 0.35 -0.65 1
-0.4 0.4 -0.6 1
-0.45 0.45 -0.55 1
-0.45 0.45 -0.45 1
-0.5 0.5 -0.4 1
-0.55 0.55 -0.35 1
0.4 -0.4 0.7 1
0.35 -0.35 0.75 1
0.3 -0.3 0.8 1
0.25 -0.25 0.85 1
0.2 -0.2 0.9 1
0.15 -0.15 0.95 1
0.0999999999999999 -0.0999999999999999 1 1
0.05 -0.05 -0.95 1
0 0 -0.9 1
-0.0499999999999999 0.0499999999999999 -0.85 1
-0.1 0.1 -0.8 1
-0.15 0.15 -0.75 1
-0.2 0.2 -0.7 1
-0.25 0.25 -0.65 1
-0.3 0.3 -0.6 1
-0.35 0.35 -0.55 1
-0.4 0.4 -0.5 1
-0.4 0.4 -0.4 1
-0.45 0.45 -0.35 1
-0.5 0.5 -0.3 1
-0.55 0.55 -0.25 1
-0.6 0.6 -0.2 1
-0.65 0.65 -0.15 1
0.3 -0.3 0.9 1
0.25 -0.25 0.95 1
0.2 -0.2 1 1
0.15 -0.15 -0.95 1
0.0999999999999999 -0.0999999999999999 -0.9 1
0.0499999999999998 -0.0499999999999998 -0.85 1
0 0 -0.8 1
-0.05 0.05 -0.75 1
-0.1 0.1 -0.7 1
-0.15 0.15 -0.65 1
-0.2 0.2 -0.6 1
-0.25 0.25 -0.55 1
-0.3 0.3 -0.5 1
-0.35 0.35 -0.45 1
-0.35 0.35 -0.35 1
-0.4 0.4 -0.3 1
-0.45 0.45 -0.25 1
-0.5 0.5 -0.2 1
-0.55 0.55 -0.15 1
-0.6 0.6 -0.1 1
-0.65 0.65 -0.05 1
-0.7 0.7 0 1
0.25 -0.25 -0.95 1
0.2 -0.2 -0.9 1
0.15 -0.15 -0.85 1
0.1 -0.1 -0.8 1
0.05 -0.05 -0.75 1
0 0 -0.7 1
-0.05 0.05 -0.65 1
-0.1 0.1 -0.6 1
-0.15 0.15 -0.55 1
-0.2 0.2 -0.5 1
-0.25 0.25 -0.45 1
-0.3 0.3 -0.4 1
-0.3 0.3 -0.3 1
-0.35 0.35 -0.25 1
-0.4 0.4 -0.2 1
-0.45 0.45 -0.15 1
-0.5 0.5 -0.1 1
-0.55 0.55 -0.05 1
-0.6 0.6 0 1
-0.65 0.65 0.05 1
0.3 -0.3 -0.9 1
0.25 -0.25 -0.85 1
0.2 -0.2 -0.8 1
0.15 -0.15 -0.75 1
0.1 -0.1 -0.7 1
0.05 -0.05 -0.65 1
0 0 -0.6 1
-0.05 0.05 -0.55 1
-0.1 0.1 -0.5 1
-0.15 0.15 -0.45 1
-0.2 0.2 -0.4 1
-0.25 0.25 -0.35 1
-0.25 0.25 -0.25 1
-0.3 0.3 -0.2 1
-0.35 0.35 -0.15 1
-0.4 0.4 -0.1 1
-0.45 0.45 -0.05 1
-0.5 0.5 0 1
-0.55 0.55 0.05 1
-0.6 0.6 0.1 1
-0.65 0.65 0.15 1
0.3 -0.3 -0.8 1
0.25 -0.25 -0.75 1
0.2 -0.2 -0.7 1
0.15 -0.15 -0.65 1
0.1 -0.1 -0.6 1
0.05 -0.05 -0.55 1
0 0 -0.5 1
-0.0499999999999999 0.0499999999999999 -0.45 1
-0.1 0.1 -0.4 1
-0.15 0.15 -0.35 1
-0.2 0.2 -0.3 1
-0.2 0.2 -0.2 1
-0.25 0.25 -0.15 1
-0.3 0.3 -0.1 1
-0.35 0.35 -0.05 1
-0.4 0.4 0 1
-0.45 0.45 0.0499999999999998 1
-0.5 0.5 0.1 1
-0.55 0.55 0.15 1
-0.6 0.6 0.2 1
0.35 -0.35 -0.75 1
0.3 -0.3 -0.7 1
0.25 -0.25 -0.65 1
0.2 -0.2 -0.6 1
0.15 -0.15 -0.55 1
0.1 -0.1 -0.5 1
0.0499999999999998 -0.0499999999999998 -0.45 1
0 0 -0.4 1
-0.05 0.05 -0.35 1
-0.1 0.1 -0.3 1
-0.15 0.15 -0.25 1
-0.15 0.15 -0.15 1
-0.2 0.2 -0.1 1
-0.25 0.25 -0.05 1
-0.3 0.3 0 1
-0.35 0.35 0.05 1
-0.4 0.4 0.1 1
-0.45 0.45 0.15 1
-0.5 0.5 0.2 1
-0.55 0.55 0.25 1
0.4 -0.4 -0.7 1
0.35 -0.35 -0.65 1
0.3 -0.3 -0.6 1
0.25 -0.25 -0.55 1
0.2 -0.2 -0.5 1
0.15 -0.15 -0.45 1
0.1 -0.1 -0.4 1
0.05 -0.05 -0.35 1
0 0 -0.3 1
-0.0499999999999999 0.0499999999999999 -0.25 1
-0.1 0.1 -0.2 1
-0.1 0.1 -0.1 1
-0.15 0.15 -0.05 1
-0.2 0.2 -1.11022302462516e-16 1
-0.25 0.25 0.0499999999999998 1
-0.3 0.3 0.0999999999999999 1
-0.35 0.35 0.15 1
-0.4 0.4 0.2 1
-0.45 0.45 0.25 1
-0.5 0.5 0.3 1
-0.55 0.55 0.35 1
0.4 -0.4 -0.6 1
0.35 -0.35 -0.55 1
0.3 -0.3 -0.5 1
0.25 -0.25 -0.45 1
0.2 -0.2 -0.4 1
0.15 -0.15 -0.35 1
0.1 -0.1 -0.3 1
0.0499999999999998 -0.0499999999999998 -0.25 1
0 0 -0.2 1
-0.05 0.05 -0.15 1
-0.05 0.05 -0.05 1
-0.1 0.1 0 1
-0.15 0.15 0.05 1
-0.2 0.2 0.1 1
-0.25 0.25 0.15 1
-0.3 0.3 0.2 1
-0.35 0.35 0.25 1
-0.4 0.4 0.3 1
-0.45 0.45 0.35 1
-0.5 0.5 0.4 1
0.45 -0.45 -0.55 1
0.4 -0.4 -0.5 1
0.35 -0.35 -0.45 1
0.3 -0.3 -0.4 1
0.25 -0.25 -0.35 1
0.2 -0.2 -0.3 1
0.15 -0.15 -0.25 1
0.1 -0.1 -0.2 1
0.05 -0.05 -0.15 1
0 0 -0.1 1
0.05 0.05 -0.05 1
0 0.1 0 1
-0.05 0.15 0.05 1
-0.1 0.2 0.1 1
-0.15 0.25 0.15 1
-0.2 0.3 0.2 1
-0.25 0.35 0.25 1
-0.3 0.4 0.3 1
-0.35 0.45 0.35 1
-0.4 0.5 0.4 1
-0.45 0.55 0.45 1
0.5 -0.4 -0.5 1
0.45 -0.35 -0.45 1
0.4 -0.3 -0.4 1
0.35 -0.25 -0.35 1
0.3 -0.2 -0.3 1
0.25 -0.15 -0.25 1
0.2 -0.1 -0.2 1
0.15 -0.05 -0.15 1
0.1 0 -0.1 1
0.1 0 0 1
0.05 0.05 0.05 1
0 0.1 0.1 1
-0.05 0.15 0.15 1
-0.1 0.2 0.2 1
-0.15 0.25 0.25 1
-0.2 0.3 0.3 1
-0.25 0.35 0.35 1
-0.3 0.4 0.4 1
-0.35 0.45 0.45 1
-0.4 0.5 0.5 1
0.55 -0.45 -0.45 1
0.5 -0.4 -0.4 1
0.45 -0.35 -0.35 1
0.4 -0.3 -0.3 1
0.35 -0.25 -0.25 1
0.3 -0.2 -0.2 1
0.25 -0.15 -0.15 1
0.2 -0.1 -0.1 1
0.15 -0.05 -0.05 1
0.15 -0.05 0.05 1
0.1 0 0.1 1
0.05 0.05 0.15 1
-1.38777878078145e-17 0.1 0.2 1
-0.05 0.15 0.25 1
-0.1 0.2 0.3 1
-0.15 0.25 0.35 1
-0.2 0.3 0.4 1
-0.25 0.35 0.45 1
-0.3 0.4 0.5 1
-0.35 0.45 0.55 1
-0.4 0.5 0.6 1
0.55 -0.45 -0.35 1
0.5 -0.4 -0.3 1
0.45 -0.35 -0.25 1
0.4 -0.3 -0.2 1
0.35 -0.25 -0.15 1
0.3 -0.2 -0.1 1
0.25 -0.15 -0.0500000000000002 1
0.2 -0.1 0 1
0.2 -0.1 0.1 1
0.15 -0.05 0.15 1
0.1 -1.38777878078145e-17 0.2 1
0.05 0.05 0.25 1
1.38777878078145e-17 0.1 0.3 1
-0.05 0.15 0.35 1
-0.1 0.2 0.4 1
-0.15 0.25 0.45 1
-0.2 0.3 0.5 1
-0.25 0.35 0.55 1
-0.3 0.4 0.6 1
-0.35 0.45 0.65 1
0.6 -0.5 -0.3 1
0.55 -0.45 -0.25 1
0.5 -0.4 -0.2 1
0.45 -0.35 -0.15 1
0.4 -0.3 -0.1 1
0.35 -0.25 -0.05 1
0.3 -0.2 -2.22044604925031e-16 1
0.25 -0.15 0.05 1
0.25 -0.15 0.15 1
0.2 -0.1 0.2 1
0.15 -0.05 0.25 1
0.1 1.38777878078145e-17 0.3 1
0.05 0.05 0.35 1
1.38777878078145e-17 0.1 0.4 1
-0.05 0.15 0.45 1
-0.1 0.2 0.5 1
-0.15 0.25 0.55 1
-0.2 0.3 0.6 1
-0.25 0.35 0.65 1
-0.3 0.4 0.7 1
0.65 -0.55 -0.25 1
0.6 -0.5 -0.2 1
0.55 -0.45 -0.15 1
0.5 -0.4 -0.1 1
0.45 -0.35 -0.05 1
0.4 -0.3 0 1
0.35 -0.25 0.0499999999999998 1
0.3 -0.2 0.0999999999999999 1
0.3 -0.2 0.2 1
0.25 -0.15 0.25 1
0.2 -0.1 0.3 1
0.15 -0.05 0.35 1
0.1 1.38777878078145e-17 0.4 1
0.05 0.05 0.45 1
-4.16333634234434e-17 0.1 0.5 1
-0.05 0.15 0.55 1
-0.1 0.2 0.6 1
-0.15 0.25 0.65 1
-0.2 0.3 0.7 1
-0.25 0.35 0.75 1
-0.3 0.4 0.8 1
0.65 -0.55 -0.15 1
0.6 -0.5 -0.1 1
0.55 -0.45 -0.05 1
0.5 -0.4 -2.22044604925031e-16 1
0.45 -0.35 0.05 1
0.4 -0.3 0.0999999999999999 1
0.35 -0.25 0.15 1
0.35 -0.25 0.25 1
0.3 -0.2 0.3 1
0.25 -0.15 0.35 1
0.2 -0.1 0.4 1
0.15 -0.05 0.45 1
0.1 -4.16333634234434e-17 0.5 1
0.05 0.05 0.55 1
1.38777878078145e-17 0.1 0.6 1
-0.05 0.15 0.65 1
-0.1 0.2 0.7 1
-0.15 0.25 0.75 1
-0.2 0.3 0.8 1
-0.25 0.35 0.85 1
0.7 -0.6 -0.1 1
0.65 -0.55 -0.05 1
0.6 -0.5 0 1
0.55 -0.45 0.05 1
0.5 -0.4 0.0999999999999999 1
0.45 -0.35 0.15 1
0.4 -0.3 0.2 1
0.4 -0.3 0.3 1
0.35 -0.25 0.35 1
0.3 -0.2 0.4 1
0.25 -0.15 0.45 1
0.2 -0.1 0.5 1
0.15 -0.05 0.55 1
0.1 1.38777878078145e-17 0.6 1
0.05 0.05 0.65 1
1.38777878078145e-17 0.1 0.7 1
-0.05 0.15 0.75 1
-0.0999999999999999 0.2 0.8 1
-0.15 0.25 0.85 1
-0.2 0.3 0.9 1
0.75 -0.65 -0.05 1
0.7 -0.6 0 1
0.65 -0.55 0.05 1
0.6 -0.5 0.0999999999999999 1
0.55 -0.45 0.15 1
0.5 -0.4 0.2 1
0.45 -0.35 0.25 1
0.45 -0.35 0.35 1
0.4 -0.3 0.4 1
0.35 -0.25 0.45 1
0.3 -0.2 0.5 1
0.25 -0.15 0.55 1
0.2 -0.1 0.6 1
0.15 -0.05 0.65 1
0.1 1.38777878078145e-17 0.7 1
0.05 0.05 0.75 1
1.38777878078145e-17 0.1 0.8 1
-0.0499999999999999 0.15 0.85 1
-0.0999999999999999 0.2 0.9 1
-0.15 0.25 0.95 1
-0.2 0.3 1 1
0.75 -0.65 0.05 1
0.7 -0.6 0.0999999999999999 1
0.65 -0.55 0.15 1
0.6 -0.5 0.2 1
0.55 -0.45 0.25 1
0.5 -0.4 0.3 1
0.5 -0.4 0.4 1
0.45 -0.35 0.45 1
0.4 -0.3 0.5 1
0.35 -0.25 0.55 1
0.3 -0.2 0.6 1
0.25 -0.15 0.65 1
0.2 -0.1 0.7 1
0.15 -0.05 0.75 1
0.1 1.38777878078145e-17 0.8 1
0.05 0.05 0.85 1
6.93889390390723e-17 0.0999999999999999 0.9 1
-0.0499999999999999 0.15 0.95 1
-0.0999999999999999 0.2 1 1
-0.15 0.25 -0.95 1
-0.2 0.3 -0.9 1
-0.25 0.35 -0.85 1
-0.3 0.4 -0.8 1
0.65 -0.55 0.25 1
0.6 -0.5 0.3 1
0.55 -0.45 0.35 1
0.55 -0.45 0.45 1
0.5 -0.4 0.5 1
0.45 -0.35 0.55 1
0.4 -0.3 0.6 1
0.35 -0.25 0.65 1
0.3 -0.2 0.7 1
0.25 -0.15 0.75 1
0.2 -0.0999999999999999 0.8 1
0.15 -0.0499999999999999 0.85 1
0.0999999999999999 6.93889390390723e-17 0.9 1
0.05 0.05 0.95 1
1.38777878078145e-17 0.1 1 1
-0.0499999999999999 0.15 -0.95 1
-0.1 0.2 -0.9 1
-0.15 0.25 -0.85 1
-0.2 0.3 -0.8 1
-0.25 0.35 -0.75 1
-0.3 0.4 -0.7 1
-0.35 0.45 -0.65 1
0.6 -0.5 0.4 1
-0.4 0.5 -0.5 1
-0.45 0.55 -0.45 1
0.5 -0.4 0.6 1
0.45 -0.35 0.65 1
0.4 -0.3 0.7 1
0.35 -0.25 0.75 1
0.3 -0.2 0.8 1
0.25 -0.15 0.85 1
0.2 -0.0999999999999999 0.9 1
0.15 -0.0499999999999999 0.95 1
0.1 1.38777878078145e-17 1 1
0.05 0.05 -0.95 1
0 0.1 -0.9 1
-0.0499999999999999 0.15 -0.85 1
-0.1 0.2 -0.8 1
-0.15 0.25 -0.75 1
-0.2 0.3 -0.7 1
-0.25 0.35 -0.65 1
-0.3 0.4 -0.6 1
-0.35 0.45 -0.55 1
-0.35 0.45 -0.45 1
-0.4 0.5 -0.4 1
-0.45 0.55 -0.35 1
-0.5 0.6 -0.3 1
-0.55 0.65 -0.25 1
0.4 -0.3 0.8 1
0.35 -0.25 0.85 1
0.3 -0.2 0.9 1
0.25 -0.15 0.95 1
0.2 -0.0999999999999999 1 1
0.15 -0.0499999999999998 -0.95 1
0.0999999999999999 1.11022302462516e-16 -0.9 1
0.05 0.05 -0.85 1
0 0.1 -0.8 1
-0.05 0.15 -0.75 1
-0.1 0.2 -0.7 1
-0.15 0.25 -0.65 1
-0.2 0.3 -0.6 1
-0.25 0.35 -0.55 1
-0.3 0.4 -0.5 1
-0.3 0.4 -0.4 1
-0.35 0.45 -0.35 1
-0.4 0.5 -0.3 1
-0.45 0.55 -0.25 1
-0.5 0.6 -0.2 1
-0.55 0.65 -0.15 1
-0.6 0.7 -0.1 1
-0.65 0.75 -0.05 1
0.3 -0.2 1 1
0.25 -0.15 -0.95 1
0.2 -0.0999999999999999 -0.9 1
0.15 -0.05 -0.85 1
0.1 0 -0.8 1
0.05 0.05 -0.75 1
0 0.1 -0.7 1
-0.05 0.15 -0.65 1
-0.1 0.2 -0.6 1
-0.15 0.25 -0.55 1
-0.2 0.3 -0.5 1
-0.25 0.35 -0.45 1
-0.25 0.35 -0.35 1
-0.3 0.4 -0.3 1
-0.35 0.45 -0.25 1
-0.4 0.5 -0.2 1
-0.45 0.55 -0.15 1
-0.5 0.6 -0.1 1
-0.55 0.65 -0.05 1
-0.6 0.7 0 1
-0.65 0.75 0.05 1
0.3 -0.2 -0.9 1
0.25 -0.15 -0.85 1
0.2 -0.1 -0.8 1
0.15 -0.05 -0.75 1
0.1 0 -0.7 1
0.05 0.05 -0.65 1
0 0.1 -0.6 1
-0.0499999999999999 0.15 -0.55 1
-0.1 0.2 -0.5 1
-0.15 0.25 -0.45 1
-0.2 0.3 -0.4 1
-0.2 0.3 -0.3 1
-0.25 0.35 -0.25 1
-0.3 0.4 -0.2 1
-0.35 0.45 -0.15 1
-0.4 0.5 -0.1 1
-0.45 0.55 -0.05 1
-0.5 0.6 0 1
-0.55 0.65 0.05 1
-0.6 0.7 0.0999999999999999 1
0.35 -0.25 -0.85 1
0.3 -0.2 -0.8 1
0.25 -0.15 -0.75 1
0.2 -0.1 -0.7 1
0.15 -0.05 -0.65 1
0.1 0 -0.6 1
0.05 0.05 -0.55 1
0 0.1 -0.5 1
-0.0499999999999999 0.15 -0.45 1
-0.0999999999999999 0.2 -0.4 1
-0.15 0.25 -0.35 1
-0.15 0.25 -0.25 1
-0.2 0.3 -0.2 1
-0.25 0.35 -0.15 1
-0.3 0.4 -0.1 1
-0.35 0.45 -0.05 1
-0.4 0.5 -2.22044604925031e-16 1
-0.45 0.55 0.05 1
-0.5 0.6 0.0999999999999999 1
-0.55 0.65 0.15 1
0.4 -0.3 -0.8 1
0.35 -0.25 -0.75 1
0.3 -0.2 -0.7 1
0.25 -0.15 -0.65 1
0.2 -0.1 -0.6 1
0.15 -0.05 -0.55 1
0.0999999999999999 1.11022302462516e-16 -0.5 1
0.05 0.05 -0.45 1
0 0.1 -0.4 1
-0.0499999999999999 0.15 -0.35 1
-0.1 0.2 -0.3 1
-0.1 0.2 -0.2 1
-0.15 0.25 -0.15 1
-0.2 0.3 -0.1 1
-0.25 0.35 -0.05 1
-0.3 0.4 0 1
-0.35 0.45 0.05 1
-0.4 0.5 0.0999999999999999 1
-0.45 0.55 0.15 1
-0.5 0.6 0.2 1
-0.55 0.65 0.25 1
0.4 -0.3 -0.7 1
0.35 -0.25 -0.65 1
0.3 -0.2 -0.6 1
0.25 -0.15 -0.55 1
0.2 -0.1 -0.5 1
0.15 -0.05 -0.45 1
0.1 0 -0.4 1
0.05 0.05 -0.35 1
0 0.1 -0.3 1
-0.0499999999999999 0.15 -0.25 1
-0.05 0.15 -0.15 1
-0.1 0.2 -0.1 1
-0.15 0.25 -0.0500000000000002 1
-0.2 0.3 -2.22044604925031e-16 1
-0.25 0.35 0.0499999999999998 1
-0.3 0.4 0.0999999999999999 1
-0.35 0.45 0.15 1
-0.4 0.5 0.2 1
-0.45 0.55 0.25 1
-0.5 0.6 0.3 1
0.45 -0.35 -0.65 1
0.4 -0.3 -0.6 1
0.35 -0.25 -0.55 1
0.3 -0.2 -0.5 1
0.25 -0.15 -0.45 1
0.2 -0.0999999999999999 -0.4 1
0.15 -0.05 -0.35 1
0.0999999999999999 1.11022302462516e-16 -0.3 1
0.05 0.05 -0.25 1
0 0.1 -0.2 1
0 0.1 -0.1 1
-0.05 0.15 -0.05 1
-0.1 0.2 0 1
-0.15 0.25 0.05 1
-0.2 0.3 0.0999999999999999 1
-0.25 0.35 0.15 1
-0.3 0.4 0.2 1
-0.35 0.45 0.25 1
-0.4 0.5 0.3 1
-0.45 0.55 0.35 1
-0.5 0.6 0.4 1
0.45 -0.35 -0.55 1
0.4 -0.3 -0.5 1
0.35 -0.25 -0.45 1
0.3 -0.2 -0.4 1
0.25 -0.15 -0.35 1
0.2 -0.1 -0.3 1
0.15 -0.05 -0.25 1
0.1 0 -0.2 1
0.05 0.05 -0.15 1
0.1 0.1 -0.1 1
0.05 0.15 -0.05 1
0 0.2 0 1
-0.05 0.25 0.05 1
-0.1 0.3 0.1 1
-0.15 0.35 0.15 1
-0.2 0.4 0.2 1
-0.25 0.45 0.25 1
-0.3 0.5 0.3 1
-0.35 0.55 0.35 1
-0.4 0.6 0.4 1
0.55 -0.35 -0.55 1
0.5 -0.3 -0.5 1
0.45 -0.25 -0.45 1
0.4 -0.2 -0.4 1
0.35 -0.15 -0.35 1
0.3 -0.1 -0.3 1
0.25 -0.05 -0.25 1
0.2 -1.11022302462516e-16 -0.2 1
0.15 0.05 -0.15 1
0.15 0.05 -0.05 1
0.1 0.1 0 1
0.05 0.15 0.05 1
-1.38777878078145e-17 0.2 0.1 1
-0.05 0.25 0.15 1
-0.1 0.3 0.2 1
-0.15 0.35 0.25 1
-0.2 0.4 0.3 1
-0.25 0.45 0.35 1
-0.3 0.5 0.4 1
-0.35 0.55 0.45 1
-0.4 0.6 0.5 1
0.55 -0.35 -0.45 1
0.5 -0.3 -0.4 1
0.45 -0.25 -0.35 1
0.4 -0.2 -0.3 1
0.35 -0.15 -0.25 1
0.3 -0.1 -0.2 1
0.25 -0.0500000000000002 -0.15 1
0.2 -1.11022302462516e-16 -0.1 1
0.2 0 0 1
0.15 0.05 0.05 1
0.1 0.1 0.1 1
0.05 0.15 0.15 1
0 0.2 0.2 1
-0.05 0.25 0.25 1
-0.1 0.3 0.3 1
-0.15 0.35 0.35 1
-0.2 0.4 0.4 1
-0.25 0.45 0.45 1
-0.3 0.5 0.5 1
-0.35 0.55 0.55 1
0.6 -0.4 -0.4 1
0.55 -0.35 -0.35 1
0.5 -0.3 -0.3 1
0.45 -0.25 -0.25 1
0.4 -0.2 -0.2 1
0.35 -0.15 -0.15 1
0.3 -0.1 -0.1 1
0.25 -0.05 -0.0499999999999999 1
0.25 -0.05 0.05 1
0.2 -1.38777878078145e-17 0.1 1
0.15 0.05 0.15 1
0.1 0.1 0.2 1
0.05 0.15 0.25 1
2.77555756156289e-17 0.2 0.3 1
-0.05 0.25 0.35 1
-0.1 0.3 0.4 1
-0.15 0.35 0.45 1
-0.2 0.4 0.5 1
-0.25 0.45 0.55 1
-0.3 0.5 0.6 1
0.65 -0.45 -0.35 1
0.6 -0.4 -0.3 1
0.55 -0.35 -0.25 1
0.5 -0.3 -0.2 1
0.45 -0.25 -0.15 1
0.4 -0.2 -0.1 1
0.35 -0.15 -0.0500000000000002 1
0.3 -0.1 0 1
0.3 -0.1 0.1 1
0.25 -0.05 0.15 1
0.2 0 0.2 1
0.15 0.05 0.25 1
0.1 0.1 0.3 1
0.05 0.15 0.35 1
-2.77555756156289e-17 0.2 0.4 1
-0.05 0.25 0.45 1
-0.1 0.3 0.5 1
-0.15 0.35 0.55 1
-0.2 0.4 0.6 1
-0.25 0.45 0.65 1
-0.3 0.5 0.7 1
0.65 -0.45 -0.25 1
0.6 -0.4 -0.2 1
0.55 -0.35 -0.15 1
0.5 -0.3 -0.1 1
0.45 -0.25 -0.0499999999999999 1
0.4 -0.2 -1.11022302462516e-16 1
0.35 -0.15 0.0499999999999998 1
0.35 -0.15 0.15 1
0.3 -0.1 0.2 1
0.25 -0.05 0.25 1
0.2 2.77555756156289e-17 0.3 1
0.15 0.05 0.35 1
0.1 0.1 0.4 1
0.05 0.15 0.45 1
-2.77555756156289e-17 0.2 0.5 1
-0.05 0.25 0.55 1
-0.1 0.3 0.6 1
-0.15 0.35 0.65 1
-0.2 0.4 0.7 1
-0.25 0.45 0.75 1
0.7 -0.5 -0.2 1
0.65 -0.45 -0.15 1
0.6 -0.4 -0.1 1
0.55 -0.35 -0.0500000000000002 1
0.5 -0.3 0 1
0.45 -0.25 0.0499999999999998 1
0.4 -0.2 0.0999999999999999 1
0.4 -0.2 0.2 1
0.35 -0.15 0.25 1
0.3 -0.1 0.3 1
0.25 -0.05 0.35 1
0.2 -2.77555756156289e-17 0.4 1
0.15 0.05 0.45 1
0.1 0.1 0.5 1
0.05 0.15 0.55 1
2.77555756156289e-17 0.2 0.6 1
-0.05 0.25 0.65 1
-0.0999999999999999 0.3 0.7 1
-0.15 0.35 0.75 1
-0.2 0.4 0.8 1
0.75 -0.55 -0.15 1
0.7 -0.5 -0.1 1
0.65 -0.45 -0.0499999999999999 1
0.6 -0.4 0 1
0.55 -0.35 0.0499999999999998 1
0.5 -0.3 0.0999999999999999 1
0.45 -0.25 0.15 1
0.45 -0.25 0.25 1
0.4 -0.2 0.3 1
0.35 -0.15 0.35 1
0.3 -0.1 0.4 1
0.25 -0.05 0.45 1
0.2 -2.77555756156289e-17 0.5 1
0.15 0.05 0.55 1
0.1 0.1 0.6 1
0.05 0.15 0.65 1
2.77555756156289e-17 0.2 0.7 1
-0.0499999999999999 0.25 0.75 1
-0.0999999999999999 0.3 0.8 1
-0.15 0.35 0.85 1
-0.2 0.4 0.9 1
0.75 -0.55 -0.0499999999999999 1
0.7 -0.5 0 1
0.65 -0.45 0.0499999999999998 1
0.6 -0.4 0.0999999999999999 1
0.55 -0.35 0.15 1
0.5 -0.3 0.2 1
0.5 -0.3 0.3 1
0.45 -0.25 0.35 1
0.4 -0.2 0.4 1
0.35 -0.15 0.45 1
0.3 -0.1 0.5 1
0.25 -0.05 0.55 1
0.2 2.77555756156289e-17 0.6 1
0.15 0.05 0.65 1
0.1 0.1 0.7 1
0.05 0.15 0.75 1
8.32667268468867e-17 0.2 0.8 1
-0.0499999999999999 0.25 0.85 1
-0.0999999999999998 0.3 0.9 1
-0.15 0.35 0.95 1
0.8 -0.6 0 1
0.75 -0.55 0.0499999999999998 1
0.7 -0.5 0.0999999999999999 1
0.65 -0.45 0.15 1
0.6 -0.4 0.2 1
0.55 -0.35 0.25 1
0.55 -0.35 0.35 1
0.5 -0.3 0.4 1
0.45 -0.25 0.45 1
0.4 -0.2 0.5 1
0.35 -0.15 0.55 1
0.3 -0.1 0.6 1
0.25 -0.05 0.65 1
0.2 2.77555756156289e-17 0.7 1
0.15 0.05 0.75 1
0.1 0.1 0.8 1
0.0500000000000001 0.15 0.85 1
8.32667268468867e-17 0.2 0.9 1
-0.0499999999999999 0.25 0.95 1
-0.0999999999999999 0.3 1 1
-0.15 0.35 -0.95 1
0.8 -0.6 0.0999999999999999 1
0.75 -0.55 0.15 1
0.7 -0.5 0.2 1
0.65 -0.45 0.25 1
0.6 -0.4 0.3 1
0.6 -0.4 0.4 1
0.55 -0.35 0.45 1
0.5 -0.3 0.5 1
0.45 -0.25 0.55 1
0.4 -0.2 0.6 1
0.35 -0.15 0.65 1
0.3 -0.0999999999999999 0.7 1
0.25 -0.0499999999999999 0.75 1
0.2 8.32667268468867e-17 0.8 1
0.15 0.0500000000000001 0.85 1
0.1 0.1 0.9 1
0.05 0.15 0.95 1
8.32667268468867e-17 0.2 1 1
-0.0499999999999999 0.25 -0.95 1
-0.1 0.3 -0.9 1
-0.15 0.35 -0.85 1
-0.2 0.4 -0.8 1
-0.25 0.45 -0.75 1
0.7 -0.5 0.3 1
0.65 -0.45 0.35 1
-0.35 0.55 -0.55 1
0.6 -0.4 0.5 1
0.55 -0.35 0.55 1
0.5 -0.3 0.6 1
0.45 -0.25 0.65 1
0.4 -0.2 0.7 1
0.35 -0.15 0.75 1
0.3 -0.0999999999999999 0.8 1
0.25 -0.0499999999999999 0.85 1
0.2 8.32667268468867e-17 0.9 1
0.15 0.05 0.95 1
0.1 0.1 1 1
0.05 0.15 -0.95 1
0 0.2 -0.9 1
-0.05 0.25 -0.85 1
-0.1 0.3 -0.8 1
-0.15 0.35 -0.75 1
-0.2 0.4 -0.7 1
-0.25 0.45 -0.65 1
-0.3 0.5 -0.6 1
-0.3 0.5 -0.5 1
-0.35 0.55 -0.45 1
-0.4 0.6 -0.4 1
-0.45 0.65 -0.35 1
0.5 -0.3 0.7 1
0.45 -0.25 0.75 1
0.4 -0.2 0.8 1
0.35 -0.15 0.85 1
0.3 -0.0999999999999998 0.9 1
0.25 -0.0499999999999999 0.95 1
0.2 8.32667268468867e-17 1 1
0.15 0.05 -0.95 1
0.1 0.1 -0.9 1
0.05 0.15 -0.85 1
-1.11022302462516e-16 0.2 -0.8 1
-0.0500000000000002 0.25 -0.75 1
-0.1 0.3 -0.7 1
-0.15 0.35 -0.65 1
-0.2 0.4 -0.6 1
-0.25 0.45 -0.55 1
-0.25 0.45 -0.45 1
-0.3 0.5 -0.4 1
-0.35 0.55 -0.35 1
-0.4 0.6 -0.3 1
-0.45 0.65 -0.25 1
-0.5 0.7 -0.2 1
-0.55 0.75 -0.15 1
0.4 -0.2 0.9 1
0.35 -0.15 0.95 1
0.3 -0.0999999999999999 1 1
0.25 -0.05 -0.95 1
0.2 0 -0.9 1
0.15 0.0499999999999999 -0.85 1
0.1 0.1 -0.8 1
0.05 0.15 -0.75 1
-1.11022302462516e-16 0.2 -0.7 1
-0.05 0.25 -0.65 1
-0.1 0.3 -0.6 1
-0.15 0.35 -0.55 1
-0.2 0.4 -0.5 1
-0.2 0.4 -0.4 1
-0.25 0.45 -0.35 1
-0.3 0.5 -0.3 1
-0.35 0.55 -0.25 1
-0.4 0.6 -0.2 1
-0.45 0.65 -0.15 1
-0.5 0.7 -0.1 1
-0.55 0.75 -0.0499999999999999 1
-0.6 0.8 0 1
0.35 -0.15 -0.95 1
0.3 -0.1 -0.9 1
0.25 -0.05 -0.85 1
0.2 0 -0.8 1
0.15 0.0499999999999999 -0.75 1
0.1 0.1 -0.7 1
0.05 0.15 -0.65 1
0 0.2 -0.6 1
-0.05 0.25 -0.55 1
-0.1 0.3 -0.5 1
-0.15 0.35 -0.45 1
-0.15 0.35 -0.35 1
-0.2 0.4 -0.3 1
-0.25 0.45 -0.25 1
-0.3 0.5 -0.2 1
-0.35 0.55 -0.15 1
-0.4 0.6 -0.1 1
-0.45 0.65 -0.0499999999999999 1
-0.5 0.7 0 1
-0.55 0.75 0.0499999999999998 1
-0.6 0.8 0.0999999999999999 1
0.35 -0.15 -0.85 1
0.3 -0.1 -0.8 1
0.25 -0.05 -0.75 1
0.2 0 -0.7 1
0.15 0.0499999999999999 -0.65 1
0.1 0.1 -0.6 1
0.05 0.15 -0.55 1
0 0.2 -0.5 1
-0.0499999999999999 0.25 -0.45 1
-0.1 0.3 -0.4 1
-0.1 0.3 -0.3 1
-0.15 0.35 -0.25 1
-0.2 0.4 -0.2 1
-0.25 0.45 -0.15 1
-0.3 0.5 -0.1 1
-0.35 0.55 -0.0500000000000002 1
-0.4 0.6 0 1
-0.45 0.65 0.0499999999999998 1
-0.5 0.7 0.0999999999999999 1
-0.55 0.75 0.15 1
0.4 -0.2 -0.8 1
0.35 -0.15 -0.75 1
0.3 -0.1 -0.7 1
0.25 -0.05 -0.65 1
0.2 0 -0.6 1
0.15 0.05 -0.55 1
0.1 0.1 -0.5 1
0.05 0.15 -0.45 1
0 0.2 -0.4 1
-0.05 0.25 -0.35 1
-0.05 0.25 -0.25 1
-0.1 0.3 -0.2 1
-0.15 0.35 -0.15 1
-0.2 0.4 -0.1 1
-0.25 0.45 -0.0499999999999999 1
-0.3 0.5 0 1
-0.35 0.55 0.0499999999999998 1
-0.4 0.6 0.0999999999999999 1
-0.45 0.65 0.15 1
-0.5 0.7 0.2 1
0.45 -0.25 -0.75 1
0.4 -0.2 -0.7 1
0.35 -0.15 -0.65 1
0.3 -0.1 -0.6 1
0.25 -0.05 -0.55 1
0.2 0 -0.5 1
0.15 0.0499999999999999 -0.45 1
0.1 0.1 -0.4 1
0.05 0.15 -0.35 1
0 0.2 -0.3 1
-1.11022302462516e-16 0.2 -0.2 1
-0.0500000000000002 0.25 -0.15 1
-0.1 0.3 -0.1 1
-0.15 0.35 -0.0500000000000002 1
-0.2 0.4 -1.11022302462516e-16 1
-0.25 0.45 0.0499999999999998 1
-0.3 0.5 0.0999999999999999 1
-0.35 0.55 0.15 1
-0.4 0.6 0.2 1
-0.45 0.65 0.25 1
0.5 -0.3 -0.7 1
0.45 -0.25 -0.65 1
0.4 -0.2 -0.6 1
0.35 -0.15 -0.55 1
0.3 -0.0999999999999999 -0.5 1
0.25 -0.0499999999999998 -0.45 1
0.2 0 -0.4 1
0.15 0.05 -0.35 1
0.1 0.1 -0.3 1
0.05 0.15 -0.25 1
0.05 0.15 -0.15 1
-1.11022302462516e-16 0.2 -0.1 1
-0.05 0.25 -0.0499999999999999 1
-0.1 0.3 0 1
-0.15 0.35 0.0499999999999998 1
-0.2 0.4 0.0999999999999999 1
-0.25 0.45 0.15 1
-0.3 0.5 0.2 1
-0.35 0.55 0.25 1
-0.4 0.6 0.3 1
-0.45 0.65 0.35 1
0.5 -0.3 -0.6 1
0.45 -0.25 -0.55 1
0.4 -0.2 -0.5 1
0.35 -0.15 -0.45 1
0.3 -0.0999999999999999 -0.4 1
0.25 -0.05 -0.35 1
0.2 0 -0.3 1
0.15 0.0499999999999999 -0.25 1
0.1 0.1 -0.2 1
0.15 0.15 -0.15 1
0.1 0.2 -0.1 1
0.05 0.25 -0.05 1
0 0.3 0 1
-0.05 0.35 0.05 1
-0.1 0.4 0.1 1
-0.15 0.45 0.15 1
-0.2 0.5 0.2 1
-0.25 0.55 0.25 1
-0.3 0.6 0.3 1
-0.35 0.65 0.35 1
-0.4 0.7 0.4 1
0.55 -0.25 -0.55 1
0.5 -0.2 -0.5 1
0.45 -0.15 -0.45 1
0.4 -0.1 -0.4 1
0.35 -0.05 -0.35 1
0.3 0 -0.3 1
0.25 0.0499999999999998 -0.25 1
0.2 0.1 -0.2 1
0.2 0.1 -0.1 1
0.15 0.15 -0.05 1
0.1 0.2 0 1
0.05 0.25 0.05 1
0 0.3 0.1 1
-0.05 0.35 0.15 1
-0.1 0.4 0.2 1
-0.15 0.45 0.25 1
-0.2 0.5 0.3 1
-0.25 0.55 0.35 1
-0.3 0.6 0.4 1
-0.35 0.65 0.45 1
0.6 -0.3 -0.5 1
0.55 -0.25 -0.45 1
0.5 -0.2 -0.4 1
0.45 -0.15 -0.35 1
0.4 -0.1 -0.3 1
0.35 -0.05 -0.25 1
0.3 -1.11022302462516e-16 -0.2 1
0.25 0.0499999999999998 -0.15 1
0.25 0.05 -0.05 1
0.2 0.1 0 1
0.15 0.15 0.05 1
0.1 0.2 0.1 1
0.05 0.25 0.15 1
2.77555756156289e-17 0.3 0.2 1
-0.05 0.35 0.25 1
-0.1 0.4 0.3 1
-0.15 0.45 0.35 1
-0.2 0.5 0.4 1
-0.25 0.55 0.45 1
-0.3 0.6 0.5 1
0.65 -0.35 -0.45 1
0.6 -0.3 -0.4 1
0.55 -0.25 -0.35 1
0.5 -0.2 -0.3 1
0.45 -0.15 -0.25 1
0.4 -0.1 -0.2 1
0.35 -0.05 -0.15 1
0.3 0 -0.1 1
0.3 0 0 1
0.25 0.05 0.05 1
0.2 0.1 0.1 1
0.15 0.15 0.15 1
0.1 0.2 0.2 1
0.05 0.25 0.25 1
0 0.3 0.3 1
-0.05 0.35 0.35 1
-0.1 0.4 0.4 1
-0.15 0.45 0.45 1
-0.2 0.5 0.5 1
-0.25 0.55 0.55 1
-0.3 0.6 0.6 1
0.65 -0.35 -0.35 1
0.6 -0.3 -0.3 1
0.55 -0.25 -0.25 1
0.5 -0.2 -0.2 1
0.45 -0.15 -0.15 1
0.4 -0.1 -0.1 1
0.35 -0.05 -0.0499999999999999 1
0.35 -0.05 0.05 1
0.3 0 0.1 1
0.25 0.05 0.15 1
0.2 0.1 0.2 1
0.15 0.15 0.25 1
0.1 0.2 0.3 1
0.05 0.25 0.35 1
0 0.3 0.4 1
-0.05 0.35 0.45 1
-0.1 0.4 0.5 1
-0.15 0.45 0.55 1
-0.2 0.5 0.6 1
-0.25 0.55 0.65 1
0.7 -0.4 -0.3 1
0.65 -0.35 -0.25 1
0.6 -0.3 -0.2 1
0.55 -0.25 -0.15 1
0.5 -0.2 -0.1 1
0.45 -0.15 -0.0500000000000002 1
0.4 -0.1 -1.11022302462516e-16 1
0.4 -0.1 0.1 1
0.35 -0.05 0.15 1
0.3 2.77555756156289e-17 0.2 1
0.25 0.05 0.25 1
0.2 0.1 0.3 1
0.15 0.15 0.35 1
0.1 0.2 0.4 1
0.05 0.25 0.45 1
0 0.3 0.5 1
-0.05 0.35 0.55 1
-0.0999999999999999 0.4 0.6 1
-0.15 0.45 0.65 1
-0.2 0.5 0.7 1
0.75 -0.45 -0.25 1
0.7 -0.4 -0.2 1
0.65 -0.35 -0.15 1
0.6 -0.3 -0.1 1
0.55 -0.25 -0.0499999999999999 1
0.5 -0.2 -1.11022302462516e-16 1
0.45 -0.15 0.0499999999999998 1
0.45 -0.15 0.15 1
0.4 -0.1 0.2 1
0.35 -0.05 0.25 1
0.3 0 0.3 1
0.25 0.05 0.35 1
0.2 0.1 0.4 1
0.15 0.15 0.45 1
0.1 0.2 0.5 1
0.05 0.25 0.55 1
5.55111512312578e-17 0.3 0.6 1
-0.0499999999999999 0.35 0.65 1
-0.0999999999999999 0.4 0.7 1
-0.15 0.45 0.75 1
-0.2 0.5 0.8 1
0.75 -0.45 -0.15 1
0.7 -0.4 -0.1 1
0.65 -0.35 -0.0499999999999999 1
0.6 -0.3 -1.11022302462516e-16 1
0.55 -0.25 0.0499999999999998 1
0.5 -0.2 0.1 1
0.5 -0.2 0.2 1
0.45 -0.15 0.25 1
0.4 -0.1 0.3 1
0.35 -0.05 0.35 1
0.3 0 0.4 1
0.25 0.05 0.45 1
0.2 0.1 0.5 1
0.15 0.15 0.55 1
0.1 0.2 0.6 1
0.05 0.25 0.65 1
1.11022302462516e-16 0.3 0.7 1
-0.0499999999999999 0.35 0.75 1
-0.0999999999999998 0.4 0.8 1
-0.15 0.45 0.85 1
0.8 -0.5 -0.1 1
0.75 -0.45 -0.0499999999999999 1
0.7 -0.4 -1.11022302462516e-16 1
0.65 -0.35 0.0499999999999998 1
0.6 -0.3 0.1 1
0.55 -0.25 0.15 1
0.55 -0.25 0.25 1
0.5 -0.2 0.3 1
0.45 -0.15 0.35 1
0.4 -0.1 0.4 1
0.35 -0.05 0.45 1
0.3 0 0.5 1
0.25 0.05 0.55 1
0.2 0.1 0.6 1
0.15 0.15 0.65 1
0.1 0.2 0.7 1
0.0500000000000001 0.25 0.75 1
1.11022302462516e-16 0.3 0.8 1
-0.0499999999999998 0.35 0.85 1
-0.0999999999999999 0.4 0.9 1
0.85 -0.55 -0.0499999999999999 1
0.8 -0.5 -1.11022302462516e-16 1
0.75 -0.45 0.0499999999999998 1
0.7 -0.4 0.1 1
0.65 -0.35 0.15 1
0.6 -0.3 0.2 1
0.6 -0.3 0.3 1
0.55 -0.25 0.35 1
0.5 -0.2 0.4 1
0.45 -0.15 0.45 1
0.4 -0.1 0.5 1
0.35 -0.05 0.55 1
0.3 5.55111512312578e-17 0.6 1
0.25 0.05 0.65 1
0.2 0.1 0.7 1
0.15 0.15 0.75 1
0.1 0.2 0.8 1
0.0500000000000001 0.25 0.85 1
1.66533453693773e-16 0.3 0.9 1
-0.0499999999999999 0.35 0.95 1
-0.0999999999999999 0.4 1 1
0.85 -0.55 0.0499999999999998 1
0.8 -0.5 0.1 1
0.75 -0.45 0.15 1
0.7 -0.4 0.2 1
0.65 -0.35 0.25 1
0.65 -0.35 0.35 1
0.6 -0.3 0.4 1
0.55 -0.25 0.45 1
0.5 -0.2 0.5 1
0.45 -0.15 0.55 1
0.4 -0.0999999999999999 0.6 1
0.35 -0.0499999999999999 0.65 1
0.3 1.11022302462516e-16 0.7 1
0.25 0.0500000000000001 0.75 1
0.2 0.1 0.8 1
0.15 0.15 0.85 1
0.1 0.2 0.9 1
0.0500000000000001 0.25 0.95 1
5.55111512312578e-17 0.3 1 1
-0.05 0.35 -0.95 1
-0.1 0.4 -0.9 1
-0.15 0.45 -0.85 1
0.8 -0.5 0.2 1
0.75 -0.45 0.25 1
0.7 -0.4 0.3 1
0.7 -0.4 0.4 1
0.65 -0.35 0.45 1
0.6 -0.3 0.5 1
0.55 -0.25 0.55 1
0.5 -0.2 0.6 1
0.45 -0.15 0.65 1
0.4 -0.0999999999999999 0.7 1
0.35 -0.0499999999999999 0.75 1
0.3 1.11022302462516e-16 0.8 1
0.25 0.0500000000000001 0.85 1
0.2 0.1 0.9 1
0.15 0.15 0.95 1
0.1 0.2 1 1
0.05 0.25 -0.95 1
0 0.3 -0.9 1
-0.05 0.35 -0.85 1
-0.1 0.4 -0.8 1
-0.15 0.45 -0.75 1
-0.2 0.5 -0.7 1
-0.25 0.55 -0.65 1
-0.25 0.55 -0.55 1
-0.3 0.6 -0.5 1
-0.35 0.65 -0.45 1
0.6 -0.3 0.6 1
0.55 -0.25 0.65 1
0.5 -0.2 0.7 1
0.45 -0.15 0.75 1
0.4 -0.0999999999999998 0.8 1
0.35 -0.0499999999999998 0.85 1
0.3 1.66533453693773e-16 0.9 1
0.25 0.0500000000000001 0.95 1
0.2 0.1 1 1
0.15 0.15 -0.95 1
0.1 0.2 -0.9 1
0.0499999999999998 0.25 -0.85 1
-1.11022302462516e-16 0.3 -0.8 1
-0.05 0.35 -0.75 1
-0.1 0.4 -0.7 1
-0.15 0.45 -0.65 1
-0.2 0.5 -0.6 1
-0.2 0.5 -0.5 1
-0.25 0.55 -0.45 1
-0.3 0.6 -0.4 1
-0.35 0.65 -0.35 1
-0.4 0.7 -0.3 1
-0.45 0.75 -0.25 1
0.5 -0.2 0.8 1
0.45 -0.15 0.85 1
0.4 -0.0999999999999999 0.9 1
0.35 -0.0499999999999999 0.95 1
0.3 5.55111512312578e-17 1 1
0.25 0.05 -0.95 1
0.2 0.1 -0.9 1
0.15 0.15 -0.85 1
0.1 0.2 -0.8 1
0.0499999999999998 0.25 -0.75 1
0 0.3 -0.7 1
-0.05 0.35 -0.65 1
-0.1 0.4 -0.6 1
-0.15 0.45 -0.55 1
-0.15 0.45 -0.45 1
-0.2 0.5 -0.4 1
-0.25 0.55 -0.35 1
-0.3 0.6 -0.3 1
-0.35 0.65 -0.25 1
-0.4 0.7 -0.2 1
-0.45 0.75 -0.15 1
-0.5 0.8 -0.1 1
-0.55 0.85 -0.0499999999999999 1
0.4 -0.0999999999999999 1 1
0.35 -0.05 -0.95 1
0.3 0 -0.9 1
0.25 0.0499999999999999 -0.85 1