125
125
0 0 0 1
-0.2 0.2 0.2 1
-0.4 0.4 0.4 1
0.4 -0.4 -0.4 1
0.2 -0.2 -0.2 1
0.2 -0.2 0.2 1
0 0 0.4 1
-0.2 0.2 0.6 1
0.6 -0.6 -0.2 1
0.4 -0.4 0 1
0.4 -0.4 0.4 1
0.2 -0.2 0.6 1
0 0 0.8 1
-0.2 0.2 1 1
0.6 -0.6 0.2 1
-0.4 0.4 -0.4 1
-0.6 0.6 -0.2 1
0.2 -0.2 1 1
0 0 -0.8 1
-0.2 0.2 -0.6 1
-0.2 0.2 -0.2 1
-0.4 0.4 0 1
-0.6 0.6 0.2 1
0.2 -0.2 -0.6 1
0 0 -0.4 1
0.2 0.2 -0.2 1
0 0.4 0 1
-0.2 0.6 0.2 1
0.6 -0.2 -0.6 1
0.4 0 -0.4 1
0.4 0 0 1
0.2 0.2 0.2 1
0 0.4 0.4 1
-0.2 0.6 0.6 1
0.6 -0.2 -0.2 1
0.6 -0.2 0.2 1
0.4 0 0.4 1
0.2 0.2 0.6 1
-5.55111512312578e-17 0.4 0.8 1
0.8 -0.4 2.22044604925031e-16 1
-0.2 0.6 -0.6 1
0.6 -0.2 0.6 1
0.4 -5.55111512312578e-17 0.8 1
0.2 0.2 -1 1
0 0.4 -0.8 1
0 0.4 -0.4 1
-0.2 0.6 -0.2 1
-0.4 0.8 2.22044604925031e-16 1
0.4 0 -0.8 1
0.2 0.2 -0.6 1
0.4 0.4 -0.4 1
0.2 0.6 -0.2 1
0 0.8 0 1
-0.2 1 0.2 1
0.6 0.2 -0.6 1
0.6 0.2 -0.2 1
0.4 0.4 0 1
0.2 0.6 0.2 1
-5.55111512312578e-17 0.8 0.4 1
0.8 0 -0.4 1
0.8 0 0 1
0.6 0.2 0.2 1
0.4 0.4 0.4 1
0.2 0.6 0.6 1
-1 -0.2 -0.2 1
1 -0.2 0.2 1
0.8 -5.55111512312578e-17 0.4 1
0.6 0.2 0.6 1
-0.6 -0.6 -0.2 1
-0.8 -0.4 0 1
0.2 0.6 -0.6 1
0 0.8 -0.4 1
-0.2 -1 -0.2 1
-0.4 -0.8 0 1
-0.6 -0.6 0.2 1
-0.4 -0.4 0.4 1
-0.6 -0.2 0.6 1
0.2 1 -0.2 1
0 -0.8 0 1
-0.2 -0.6 0.2 1
-0.2 -0.6 0.6 1
0.6 0.6 -0.2 1
0.4 0.8 0 1
0.2 -1 0.2 1
0 -0.8 0.4 1
1 0.2 -0.2 1
0.8 0.4 0 1
0.6 0.6 0.2 1
-0.6 -0.2 -0.6 1
-0.8 0 -0.4 1
-0.8 0 0 1
-1 0.2 0.2 1
-0.2 -0.6 -0.6 1
-0.4 -0.4 -0.4 1
-0.6 -0.2 -0.2 1
-0.6 -0.2 0.2 1
-0.8 0 0.4 1
0 -0.8 -0.4 1
-0.2 -0.6 -0.2 1
-0.4 -0.4 0 1
-0.2 -0.2 0.2 1
-0.4 0 0.4 1
-0.6 0.2 0.6 1
0.2 -0.6 -0.2 1
0 -0.4 0 1
0 -0.4 0.4 1
-0.2 -0.2 0.6 1
-0.4 0 0.8 1
0.4 -0.8 0 1
0.2 -0.6 0.2 1
0.2 -0.6 0.6 1
0 -0.4 0.8 1
-0.2 -0.2 -1 1
-0.4 0 -0.8 1
-0.6 0.2 -0.6 1
-0.6 0.2 -0.2 1
-0.8 0.4 0 1
0 -0.4 -0.8 1
-0.2 -0.2 -0.6 1
-0.4 0 -0.4 1
-0.4 0 0 1
-0.6 0.2 0.2 1
0.2 -0.6 -0.6 1
0 -0.4 -0.4 1
-0.2 -0.2 -0.2 1
