27000
27000
0 0 0 1
-0.0333333333333333 0.0333333333333333 0.0333333333333333 1
-0.0666666666666667 0.0666666666666667 0.0666666666666667 1
-0.1 0.1 0.1 1
-0.133333333333333 0.133333333333333 0.133333333333333 1
-0.166666666666667 0.166666666666667 0.166666666666667 1
-0.2 0.2 0.2 1
-0.233333333333333 0.233333333333333 0.233333333333333 1
-0.266666666666667 0.266666666666667 0.266666666666667 1
-0.3 0.3 0.3 1
-0.333333333333333 0.333333333333333 0.333333333333333 1
-0.366666666666667 0.366666666666667 0.366666666666667 1
-0.4 0.4 0.4 1
-0.433333333333333 0.433333333333333 0.433333333333333 1
-0.466666666666667 0.466666666666667 0.466666666666667 1
-0.5 0.5 0.5 1
0.466666666666667 -0.466666666666667 -0.466666666666667 1
0.433333333333333 -0.433333333333333 -0.433333333333333 1
0.4 -0.4 -0.4 1
0.366666666666667 -0.366666666666667 -0.366666666666667 1
0.333333333333333 -0.333333333333333 -0.333333333333333 1
0.3 -0.3 -0.3 1
0.266666666666667 -0.266666666666667 -0.266666666666667 1
0.233333333333333 -0.233333333333333 -0.233333333333333 1
0.2 -0.2 -0.2 1
0.166666666666667 -0.166666666666667 -0.166666666666667 1
0.133333333333333 -0.133333333333333 -0.133333333333333 1
0.1 -0.1 -0.1 1
0.0666666666666667 -0.0666666666666667 -0.0666666666666667 1
0.0333333333333333 -0.0333333333333333 -0.0333333333333333 1
0.0333333333333333 -0.0333333333333333 0.0333333333333333 1
0 0 0.0666666666666667 1
-0.0333333333333333 0.0333333333333333 0.1 1
-0.0666666666666667 0.0666666666666667 0.133333333333333 1
-0.1 0.1 0.166666666666667 1
-0.133333333333333 0.133333333333333 0.2 1
-0.166666666666667 0.166666666666667 0.233333333333333 1
-0.2 0.2 0.266666666666667 1
-0.233333333333333 0.233333333333333 0.3 1
-0.266666666666667 0.266666666666667 0.333333333333333 1
-0.3 0.3 0.366666666666667 1
-0.333333333333333 0.333333333333333 0.4 1
-0.366666666666667 0.366666666666667 0.433333333333333 1
-0.4 0.4 0.466666666666667 1
-0.433333333333333 0.433333333333333 0.5 1
-0.466666666666667 0.466666666666667 0.533333333333333 1
0.5 -0.5 -0.433333333333333 1
0.466666666666667 -0.466666666666667 -0.4 1
0.433333333333333 -0.433333333333333 -0.366666666666667 1
0.4 -0.4 -0.333333333333333 1
0.366666666666667 -0.366666666666667 -0.3 1
0.333333333333333 -0.333333333333333 -0.266666666666667 1
0.3 -0.3 -0.233333333333333 1
0.266666666666667 -0.266666666666667 -0.2 1
0.233333333333333 -0.233333333333333 -0.166666666666667 1
0.2 -0.2 -0.133333333333333 1
0.166666666666667 -0.166666666666667 -0.1 1
0.133333333333333 -0.133333333333333 -0.0666666666666667 1
0.1 -0.1 -0.0333333333333333 1
0.0666666666666667 -0.0666666666666667 0 1
0.0666666666666667 -0.0666666666666667 0.0666666666666667 1
0.0333333333333333 -0.0333333333333333 0.1 1
0 0 0.133333333333333 1
-0.0333333333333333 0.0333333333333333 0.166666666666667 1
-0.0666666666666667 0.0666666666666667 0.2 1
-0.1 0.1 0.233333333333333 1
-0.133333333333333 0.133333333333333 0.266666666666667 1
-0.166666666666667 0.166666666666667 0.3 1
-0.2 0.2 0.333333333333333 1
-0.233333333333333 0.233333333333333 0.366666666666667 1
-0.266666666666667 0.266666666666667 0.4 1
-0.3 0.3 0.433333333333333 1
-0.333333333333333 0.333333333333333 0.466666666666667 1
-0.366666666666667 0.366666666666667 0.5 1
-0.4 0.4 0.533333333333333 1
-0.433333333333333 0.433333333333333 0.566666666666667 1
0.533333333333333 -0.533333333333333 -0.4 1
0.5 -0.5 -0.366666666666667 1
0.466666666666667 -0.466666666666667 -0.333333333333333 1
0.433333333333333 -0.433333333333333 -0.3 1
0.4 -0.4 -0.266666666666667 1
0.366666666666667 -0.366666666666667 -0.233333333333333 1
0.333333333333333 -0.333333333333333 -0.2 1
0.3 -0.3 -0.166666666666667 1
0.266666666666667 -0.266666666666667 -0.133333333333333 1
0.233333333333333 -0.233333333333333 -0.1 1
0.2 -0.2 -0.0666666666666667 1
0.166666666666667 -0.166666666666667 -0.0333333333333333 1
0.133333333333333 -0.133333333333333 0 1
0.1 -0.1 0.0333333333333334 1
0.1 -0.1 0.1 1
0.0666666666666667 -0.0666666666666667 0.133333333333333 1
0.0333333333333333 -0.0333333333333333 0.166666666666667 1
0 0 0.2 1
-0.0333333333333333 0.0333333333333333 0.233333333333333 1
-0.0666666666666667 0.0666666666666667 0.266666666666667 1
-0.1 0.1 0.3 1
-0.133333333333333 0.133333333333333 0.333333333333333 1
-0.166666666666667 0.166666666666667 0.366666666666667 1
-0.2 0.2 0.4 1
-0.233333333333333 0.233333333333333 0.433333333333333 1
-0.266666666666667 0.266666666666667 0.466666666666667 1
-0.3 0.3 0.5 1
-0.333333333333333 0.333333333333333 0.533333333333333 1
-0.366666666666667 0.366666666666667 0.566666666666667 1
-0.4 0.4 0.6 1
-0.433333333333333 0.433333333333333 0.633333333333333 1
0.533333333333333 -0.533333333333333 -0.333333333333333 1
0.5 -0.5 -0.3 1
0.466666666666667 -0.466666666666667 -0.266666666666667 1
0.433333333333333 -0.433333333333333 -0.233333333333333 1
0.4 -0.4 -0.2 1
0.366666666666667 -0.366666666666667 -0.166666666666667 1
0.333333333333333 -0.333333333333333 -0.133333333333333 1
0.3 -0.3 -0.1 1
0.266666666666667 -0.266666666666667 -0.0666666666666667 1
0.233333333333333 -0.233333333333333 -0.0333333333333333 1
0.2 -0.2 0 1
0.166666666666667 -0.166666666666667 0.0333333333333334 1
0.133333333333333 -0.133333333333333 0.0666666666666667 1
0.133333333333333 -0.133333333333333 0.133333333333333 1
0.1 -0.1 0.166666666666667 1
0.0666666666666667 -0.0666666666666667 0.2 1
0.0333333333333333 -0.0333333333333333 0.233333333333333 1
0 0 0.266666666666667 1
-0.0333333333333333 0.0333333333333333 0.3 1
-0.0666666666666667 0.0666666666666667 0.333333333333333 1
-0.1 0.1 0.366666666666667 1
-0.133333333333333 0.133333333333333 0.4 1
-0.166666666666667 0.166666666666667 0.433333333333333 1
-0.2 0.2 0.466666666666667 1
-0.233333333333333 0.233333333333333 0.5 1
-0.266666666666667 0.266666666666667 0.533333333333333 1
-0.3 0.3 0.566666666666667 1
-0.333333333333333 0.333333333333333 0.6 1
-0.366666666666667 0.366666666666667 0.633333333333333 1
-0.4 0.4 0.666666666666667 1
0.566666666666667 -0.566666666666667 -0.3 1
0.533333333333333 -0.533333333333333 -0.266666666666667 1
0.5 -0.5 -0.233333333333333 1
0.466666666666667 -0.466666666666667 -0.2 1
0.433333333333333 -0.433333333333333 -0.166666666666667 1
0.4 -0.4 -0.133333333333333 1
0.366666666666667 -0.366666666666667 -0.1 1
0.333333333333333 -0.333333333333333 -0.0666666666666667 1
0.3 -0.3 -0.0333333333333333 1
0.266666666666667 -0.266666666666667 0 1
0.233333333333333 -0.233333333333333 0.0333333333333334 1
0.2 -0.2 0.0666666666666667 1
0.166666666666667 -0.166666666666667 0.1 1
0.166666666666667 -0.166666666666667 0.166666666666667 1
0.133333333333333 -0.133333333333333 0.2 1
0.1 -0.1 0.233333333333333 1
0.0666666666666667 -0.0666666666666667 0.266666666666667 1
0.0333333333333333 -0.0333333333333333 0.3 1
0 0 0.333333333333333 1
-0.0333333333333334 0.0333333333333334 0.366666666666667 1
-0.0666666666666667 0.0666666666666667 0.4 1
-0.1 0.1 0.433333333333333 1
-0.133333333333333 0.133333333333333 0.466666666666667 1
-0.166666666666667 0.166666666666667 0.5 1
-0.2 0.2 0.533333333333333 1
-0.233333333333333 0.233333333333333 0.566666666666667 1
-0.266666666666667 0.266666666666667 0.6 1
-0.3 0.3 0.633333333333333 1
-0.333333333333333 0.333333333333333 0.666666666666667 1
-0.366666666666667 0.366666666666667 0.7 1
0.6 -0.6 -0.266666666666667 1
0.566666666666667 -0.566666666666667 -0.233333333333333 1
0.533333333333333 -0.533333333333333 -0.2 1
0.5 -0.5 -0.166666666666667 1
0.466666666666667 -0.466666666666667 -0.133333333333333 1
0.433333333333333 -0.433333333333333 -0.1 1
0.4 -0.4 -0.0666666666666668 1
0.366666666666667 -0.366666666666667 -0.0333333333333333 1
0.333333333333333 -0.333333333333333 0 1
0.3 -0.3 0.0333333333333334 1
0.266666666666667 -0.266666666666667 0.0666666666666667 1
0.233333333333333 -0.233333333333333 0.1 1
0.2 -0.2 0.133333333333333 1
0.2 -0.2 0.2 1
0.166666666666667 -0.166666666666667 0.233333333333333 1
0.133333333333333 -0.133333333333333 0.266666666666667 1
0.1 -0.1 0.3 1
0.0666666666666667 -0.0666666666666667 0.333333333333333 1
0.0333333333333334 -0.0333333333333334 0.366666666666667 1
0 0 0.4 1
-0.0333333333333333 0.0333333333333333 0.433333333333333 1
-0.0666666666666667 0.0666666666666667 0.466666666666667 1
-0.1 0.1 0.5 1
-0.133333333333333 0.133333333333333 0.533333333333333 1
-0.166666666666667 0.166666666666667 0.566666666666667 1
-0.2 0.2 0.6 1
-0.233333333333333 0.233333333333333 0.633333333333333 1
-0.266666666666667 0.266666666666667 0.666666666666667 1
-0.3 0.3 0.7 1
-0.333333333333333 0.333333333333333 0.733333333333333 1
-0.366666666666667 0.366666666666667 0.766666666666667 1
0.6 -0.6 -0.2 1
0.566666666666667 -0.566666666666667 -0.166666666666667 1
0.533333333333333 -0.533333333333333 -0.133333333333333 1
0.5 -0.5 -0.1 1
0.466666666666667 -0.466666666666667 -0.0666666666666667 1
0.433333333333333 -0.433333333333333 -0.0333333333333334 1
0.4 -0.4 0 1
0.366666666666667 -0.366666666666667 0.0333333333333334 1
0.333333333333333 -0.333333333333333 0.0666666666666667 1
0.3 -0.3 0.1 1
0.266666666666667 -0.266666666666667 0.133333333333333 1
0.233333333333333 -0.233333333333333 0.166666666666667 1
0.233333333333333 -0.233333333333333 0.233333333333333 1
0.2 -0.2 0.266666666666667 1
0.166666666666667 -0.166666666666667 0.3 1
0.133333333333333 -0.133333333333333 0.333333333333333 1
0.1 -0.1 0.366666666666667 1
0.0666666666666667 -0.0666666666666667 0.4 1
0.0333333333333333 -0.0333333333333333 0.433333333333333 1
0 0 0.466666666666667 1
-0.0333333333333333 0.0333333333333333 0.5 1
-0.0666666666666667 0.0666666666666667 0.533333333333333 1
-0.1 0.1 0.566666666666667 1
-0.133333333333333 0.133333333333333 0.6 1
-0.166666666666667 0.166666666666667 0.633333333333333 1
-0.2 0.2 0.666666666666667 1
-0.233333333333333 0.233333333333333 0.7 1
-0.266666666666667 0.266666666666667 0.733333333333333 1
-0.3 0.3 0.766666666666667 1
-0.333333333333333 0.333333333333333 0.8 1
0.633333333333333 -0.633333333333333 -0.166666666666667 1
0.6 -0.6 -0.133333333333333 1
0.566666666666667 -0.566666666666667 -0.0999999999999999 1
0.533333333333333 -0.533333333333333 -0.0666666666666667 1
0.5 -0.5 -0.0333333333333332 1
0.466666666666667 -0.466666666666667 0 1
0.433333333333333 -0.433333333333333 0.0333333333333334 1
0.4 -0.4 0.0666666666666667 1
0.366666666666667 -0.366666666666667 0.1 1
0.333333333333333 -0.333333333333333 0.133333333333333 1
0.3 -0.3 0.166666666666667 1
0.266666666666667 -0.266666666666667 0.2 1
0.266666666666667 -0.266666666666667 0.266666666666667 1
0.233333333333333 -0.233333333333333 0.3 1
0.2 -0.2 0.333333333333333 1
0.166666666666667 -0.166666666666667 0.366666666666667 1
0.133333333333333 -0.133333333333333 0.4 1
0.1 -0.1 0.433333333333333 1
0.0666666666666667 -0.0666666666666667 0.466666666666667 1
0.0333333333333333 -0.0333333333333333 0.5 1
0 0 0.533333333333333 1
-0.0333333333333333 0.0333333333333333 0.566666666666667 1
-0.0666666666666667 0.0666666666666667 0.6 1
-0.1 0.1 0.633333333333333 1
-0.133333333333333 0.133333333333333 0.666666666666667 1
-0.166666666666667 0.166666666666667 0.7 1
-0.2 0.2 0.733333333333333 1
-0.233333333333333 0.233333333333333 0.766666666666667 1
-0.266666666666667 0.266666666666667 0.8 1
-0.3 0.3 0.833333333333333 1
0.666666666666667 -0.666666666666667 -0.133333333333333 1
0.633333333333333 -0.633333333333333 -0.1 1
0.6 -0.6 -0.0666666666666667 1
0.566666666666667 -0.566666666666667 -0.0333333333333334 1
0.533333333333333 -0.533333333333333 0 1
0.5 -0.5 0.0333333333333332 1
0.466666666666667 -0.466666666666667 0.0666666666666667 1
0.433333333333333 -0.433333333333333 0.1 1
0.4 -0.4 0.133333333333333 1
0.366666666666667 -0.366666666666667 0.166666666666667 1
0.333333333333333 -0.333333333333333 0.2 1
0.3 -0.3 0.233333333333333 1
0.3 -0.3 0.3 1
0.266666666666667 -0.266666666666667 0.333333333333333 1
0.233333333333333 -0.233333333333333 0.366666666666667 1
0.2 -0.2 0.4 1
0.166666666666667 -0.166666666666667 0.433333333333333 1
0.133333333333333 -0.133333333333333 0.466666666666667 1
0.1 -0.1 0.5 1
0.0666666666666667 -0.0666666666666667 0.533333333333333 1
0.0333333333333333 -0.0333333333333333 0.566666666666667 1
0 0 0.6 1
-0.0333333333333333 0.0333333333333333 0.633333333333333 1
-0.0666666666666667 0.0666666666666667 0.666666666666667 1
-0.1 0.1 0.7 1
-0.133333333333333 0.133333333333333 0.733333333333333 1
-0.166666666666667 0.166666666666667 0.766666666666667 1
-0.2 0.2 0.8 1
-0.233333333333333 0.233333333333333 0.833333333333333 1
-0.266666666666667 0.266666666666667 0.866666666666667 1
0.7 -0.7 -0.0999999999999999 1
0.666666666666667 -0.666666666666667 -0.0666666666666667 1
0.633333333333333 -0.633333333333333 -0.0333333333333332 1
0.6 -0.6 0 1
0.566666666666667 -0.566666666666667 0.0333333333333334 1
0.533333333333333 -0.533333333333333 0.0666666666666667 1
0.5 -0.5 0.1 1
0.466666666666667 -0.466666666666667 0.133333333333333 1
0.433333333333333 -0.433333333333333 0.166666666666667 1
0.4 -0.4 0.2 1
0.366666666666667 -0.366666666666667 0.233333333333333 1
0.333333333333333 -0.333333333333333 0.266666666666667 1
0.333333333333333 -0.333333333333333 0.333333333333333 1
0.3 -0.3 0.366666666666667 1
0.266666666666667 -0.266666666666667 0.4 1
0.233333333333333 -0.233333333333333 0.433333333333333 1
0.2 -0.2 0.466666666666667 1
0.166666666666667 -0.166666666666667 0.5 1
0.133333333333333 -0.133333333333333 0.533333333333333 1
0.1 -0.1 0.566666666666667 1
0.0666666666666667 -0.0666666666666667 0.6 1
0.0333333333333333 -0.0333333333333333 0.633333333333333 1
0 0 0.666666666666667 1
-0.0333333333333333 0.0333333333333333 0.7 1
-0.0666666666666667 0.0666666666666667 0.733333333333333 1
-0.1 0.1 0.766666666666667 1
-0.133333333333333 0.133333333333333 0.8 1
-0.166666666666667 0.166666666666667 0.833333333333333 1
-0.2 0.2 0.866666666666667 1
-0.233333333333333 0.233333333333333 0.9 1
-0.266666666666667 0.266666666666667 0.933333333333333 1
0.7 -0.7 -0.0333333333333334 1
0.666666666666667 -0.666666666666667 0 1
0.633333333333333 -0.633333333333333 0.0333333333333332 1
0.6 -0.6 0.0666666666666667 1
0.566666666666667 -0.566666666666667 0.0999999999999999 1
0.533333333333333 -0.533333333333333 0.133333333333333 1
0.5 -0.5 0.166666666666667 1
0.466666666666667 -0.466666666666667 0.2 1
0.433333333333333 -0.433333333333333 0.233333333333333 1
0.4 -0.4 0.266666666666667 1
0.366666666666667 -0.366666666666667 0.3 1
0.366666666666667 -0.366666666666667 0.366666666666667 1
0.333333333333333 -0.333333333333333 0.4 1
0.3 -0.3 0.433333333333333 1
0.266666666666667 -0.266666666666667 0.466666666666667 1
0.233333333333333 -0.233333333333333 0.5 1
0.2 -0.2 0.533333333333333 1
0.166666666666667 -0.166666666666667 0.566666666666667 1
0.133333333333333 -0.133333333333333 0.6 1
0.1 -0.1 0.633333333333333 1
0.0666666666666667 -0.0666666666666667 0.666666666666667 1
0.0333333333333333 -0.0333333333333333 0.7 1
0 0 0.733333333333333 1
-0.0333333333333334 0.0333333333333334 0.766666666666667 1
-0.0666666666666667 0.0666666666666667 0.8 1
-0.1 0.1 0.833333333333333 1
-0.133333333333333 0.133333333333333 0.866666666666667 1
-0.166666666666667 0.166666666666667 0.9 1
-0.2 0.2 0.933333333333333 1
-0.233333333333333 0.233333333333333 0.966666666666667 1
0.733333333333333 -0.733333333333333 0 1
0.7 -0.7 0.0333333333333334 1
0.666666666666667 -0.666666666666667 0.0666666666666667 1
0.633333333333333 -0.633333333333333 0.1 1
0.6 -0.6 0.133333333333333 1
0.566666666666667 -0.566666666666667 0.166666666666667 1
0.533333333333333 -0.533333333333333 0.2 1
0.5 -0.5 0.233333333333333 1
0.466666666666667 -0.466666666666667 0.266666666666667 1
0.433333333333333 -0.433333333333333 0.3 1
0.4 -0.4 0.333333333333333 1
0.4 -0.4 0.4 1
0.366666666666667 -0.366666666666667 0.433333333333333 1
0.333333333333333 -0.333333333333333 0.466666666666667 1
0.3 -0.3 0.5 1
0.266666666666667 -0.266666666666667 0.533333333333333 1
0.233333333333333 -0.233333333333333 0.566666666666667 1
0.2 -0.2 0.6 1
0.166666666666667 -0.166666666666667 0.633333333333333 1
0.133333333333333 -0.133333333333333 0.666666666666667 1
0.1 -0.1 0.7 1
0.0666666666666667 -0.0666666666666667 0.733333333333333 1
0.0333333333333334 -0.0333333333333334 0.766666666666667 1
0 0 0.8 1
-0.0333333333333333 0.0333333333333333 0.833333333333333 1
-0.0666666666666667 0.0666666666666667 0.866666666666667 1
-0.1 0.1 0.9 1
-0.133333333333333 0.133333333333333 0.933333333333333 1
-0.166666666666667 0.166666666666667 0.966666666666667 1
-0.2 0.2 1 1
-0.233333333333333 0.233333333333333 -0.966666666666667 1
-0.266666666666667 0.266666666666667 -0.933333333333333 1
-0.3 0.3 -0.9 1
0.666666666666667 -0.666666666666667 0.133333333333333 1
0.633333333333333 -0.633333333333333 0.166666666666667 1
0.6 -0.6 0.2 1
0.566666666666667 -0.566666666666667 0.233333333333333 1
0.533333333333333 -0.533333333333333 0.266666666666667 1
0.5 -0.5 0.3 1
0.466666666666667 -0.466666666666667 0.333333333333333 1
0.433333333333333 -0.433333333333333 0.366666666666667 1
0.433333333333333 -0.433333333333333 0.433333333333333 1
0.4 -0.4 0.466666666666667 1
0.366666666666667 -0.366666666666667 0.5 1
0.333333333333333 -0.333333333333333 0.533333333333333 1
0.3 -0.3 0.566666666666667 1
0.266666666666667 -0.266666666666667 0.6 1
0.233333333333333 -0.233333333333333 0.633333333333333 1
0.2 -0.2 0.666666666666667 1
0.166666666666667 -0.166666666666667 0.7 1
0.133333333333333 -0.133333333333333 0.733333333333333 1
0.1 -0.1 0.766666666666667 1
0.0666666666666667 -0.0666666666666667 0.8 1
0.0333333333333333 -0.0333333333333333 0.833333333333333 1
0 0 0.866666666666667 1
-0.0333333333333333 0.0333333333333333 0.9 1
-0.0666666666666667 0.0666666666666667 0.933333333333333 1
-0.1 0.1 0.966666666666667 1
-0.133333333333333 0.133333333333333 1 1
-0.166666666666667 0.166666666666667 -0.966666666666667 1
-0.2 0.2 -0.933333333333333 1
-0.233333333333333 0.233333333333333 -0.9 1
-0.266666666666667 0.266666666666667 -0.866666666666667 1
-0.3 0.3 -0.833333333333333 1
-0.333333333333333 0.333333333333333 -0.8 1
-0.366666666666667 0.366666666666667 -0.766666666666667 1
0.6 -0.6 0.266666666666667 1
0.566666666666667 -0.566666666666667 0.3 1
0.533333333333333 -0.533333333333333 0.333333333333333 1
0.5 -0.5 0.366666666666667 1
0.466666666666667 -0.466666666666667 0.4 1
0.466666666666667 -0.466666666666667 0.466666666666667 1
0.433333333333333 -0.433333333333333 0.5 1
0.4 -0.4 0.533333333333333 1
0.366666666666667 -0.366666666666667 0.566666666666667 1
0.333333333333333 -0.333333333333333 0.6 1
0.3 -0.3 0.633333333333333 1
0.266666666666667 -0.266666666666667 0.666666666666667 1
0.233333333333333 -0.233333333333333 0.7 1
0.2 -0.2 0.733333333333333 1
0.166666666666667 -0.166666666666667 0.766666666666667 1
0.133333333333333 -0.133333333333333 0.8 1
0.1 -0.1 0.833333333333333 1
0.0666666666666667 -0.0666666666666667 0.866666666666667 1
0.0333333333333333 -0.0333333333333333 0.9 1
0 0 0.933333333333333 1
-0.0333333333333333 0.0333333333333333 0.966666666666667 1
-0.0666666666666667 0.0666666666666667 1 1
-0.1 0.1 -0.966666666666667 1
-0.133333333333333 0.133333333333333 -0.933333333333333 1
-0.166666666666667 0.166666666666667 -0.9 1
-0.2 0.2 -0.866666666666667 1
-0.233333333333333 0.233333333333333 -0.833333333333333 1
-0.266666666666667 0.266666666666667 -0.8 1
-0.3 0.3 -0.766666666666667 1
-0.333333333333333 0.333333333333333 -0.733333333333333 1
-0.366666666666667 0.366666666666667 -0.7 1
-0.4 0.4 -0.666666666666667 1
-0.433333333333333 0.433333333333333 -0.633333333333333 1
0.533333333333333 -0.533333333333333 0.4 1
0.5 -0.5 0.433333333333333 1
0.5 -0.5 0.5 1
0.466666666666667 -0.466666666666667 0.533333333333333 1
0.433333333333333 -0.433333333333333 0.566666666666667 1
0.4 -0.4 0.6 1
0.366666666666667 -0.366666666666667 0.633333333333333 1
0.333333333333333 -0.333333333333333 0.666666666666667 1
0.3 -0.3 0.7 1
0.266666666666667 -0.266666666666667 0.733333333333333 1
0.233333333333333 -0.233333333333333 0.766666666666667 1
0.2 -0.2 0.8 1
0.166666666666667 -0.166666666666667 0.833333333333333 1
0.133333333333333 -0.133333333333333 0.866666666666667 1
0.1 -0.1 0.9 1
0.0666666666666667 -0.0666666666666667 0.933333333333333 1
0.0333333333333333 -0.0333333333333333 0.966666666666667 1
0 0 1 1
-0.0333333333333333 0.0333333333333333 -0.966666666666667 1
-0.0666666666666667 0.0666666666666667 -0.933333333333333 1
-0.1 0.1 -0.9 1
-0.133333333333333 0.133333333333333 -0.866666666666667 1
-0.166666666666667 0.166666666666667 -0.833333333333333 1
-0.2 0.2 -0.8 1
-0.233333333333333 0.233333333333333 -0.766666666666667 1
-0.266666666666667 0.266666666666667 -0.733333333333333 1
-0.3 0.3 -0.7 1
-0.333333333333333 0.333333333333333 -0.666666666666667 1
-0.366666666666667 0.366666666666667 -0.633333333333333 1
-0.4 0.4 -0.6 1
-0.433333333333333 0.433333333333333 -0.566666666666667 1
-0.466666666666667 0.466666666666667 -0.533333333333333 1
-0.466666666666667 0.466666666666667 -0.466666666666667 1
-0.5 0.5 -0.433333333333333 1
-0.533333333333333 0.533333333333333 -0.4 1
0.433333333333333 -0.433333333333333 0.633333333333333 1
0.4 -0.4 0.666666666666667 1
0.366666666666667 -0.366666666666667 0.7 1
0.333333333333333 -0.333333333333333 0.733333333333333 1
0.3 -0.3 0.766666666666667 1
0.266666666666667 -0.266666666666667 0.8 1
0.233333333333333 -0.233333333333333 0.833333333333333 1
0.2 -0.2 0.866666666666667 1
0.166666666666667 -0.166666666666667 0.9 1
0.133333333333333 -0.133333333333333 0.933333333333333 1
0.1 -0.1 0.966666666666667 1
0.0666666666666667 -0.0666666666666667 1 1
0.0333333333333332 -0.0333333333333332 -0.966666666666667 1
0 0 -0.933333333333333 1
-0.0333333333333333 0.0333333333333333 -0.9 1
-0.0666666666666668 0.0666666666666668 -0.866666666666667 1
-0.1 0.1 -0.833333333333333 1
-0.133333333333333 0.133333333333333 -0.8 1
-0.166666666666667 0.166666666666667 -0.766666666666667 1
-0.2 0.2 -0.733333333333333 1
-0.233333333333333 0.233333333333333 -0.7 1
-0.266666666666667 0.266666666666667 -0.666666666666667 1
-0.3 0.3 -0.633333333333333 1
-0.333333333333333 0.333333333333333 -0.6 1
-0.366666666666667 0.366666666666667 -0.566666666666667 1
-0.4 0.4 -0.533333333333333 1
-0.433333333333333 0.433333333333333 -0.5 1
-0.433333333333333 0.433333333333333 -0.433333333333333 1
-0.466666666666667 0.466666666666667 -0.4 1
-0.5 0.5 -0.366666666666667 1
-0.533333333333333 0.533333333333333 -0.333333333333333 1
-0.566666666666667 0.566666666666667 -0.3 1
-0.6 0.6 -0.266666666666667 1
0.366666666666667 -0.366666666666667 0.766666666666667 1
0.333333333333333 -0.333333333333333 0.8 1
0.3 -0.3 0.833333333333333 1
0.266666666666667 -0.266666666666667 0.866666666666667 1
0.233333333333333 -0.233333333333333 0.9 1
0.2 -0.2 0.933333333333333 1
0.166666666666667 -0.166666666666667 0.966666666666667 1
0.133333333333333 -0.133333333333333 1 1
0.1 -0.1 -0.966666666666667 1
0.0666666666666667 -0.0666666666666667 -0.933333333333333 1
0.0333333333333332 -0.0333333333333332 -0.9 1
0 0 -0.866666666666667 1
-0.0333333333333334 0.0333333333333334 -0.833333333333333 1
-0.0666666666666667 0.0666666666666667 -0.8 1
-0.1 0.1 -0.766666666666667 1
-0.133333333333333 0.133333333333333 -0.733333333333333 1
-0.166666666666667 0.166666666666667 -0.7 1
-0.2 0.2 -0.666666666666667 1
-0.233333333333333 0.233333333333333 -0.633333333333333 1
-0.266666666666667 0.266666666666667 -0.6 1
-0.3 0.3 -0.566666666666667 1
-0.333333333333333 0.333333333333333 -0.533333333333333 1
-0.366666666666667 0.366666666666667 -0.5 1
-0.4 0.4 -0.466666666666667 1
-0.4 0.4 -0.4 1
-0.433333333333333 0.433333333333333 -0.366666666666667 1
-0.466666666666667 0.466666666666667 -0.333333333333333 1
-0.5 0.5 -0.3 1
-0.533333333333333 0.533333333333333 -0.266666666666667 1
-0.566666666666667 0.566666666666667 -0.233333333333333 1
-0.6 0.6 -0.2 1
-0.633333333333333 0.633333333333333 -0.166666666666667 1
-0.666666666666667 0.666666666666667 -0.133333333333333 1
-0.7 0.7 -0.0999999999999999 1
0.266666666666667 -0.266666666666667 0.933333333333333 1
0.233333333333333 -0.233333333333333 0.966666666666667 1
0.2 -0.2 1 1
0.166666666666667 -0.166666666666667 -0.966666666666667 1
0.133333333333333 -0.133333333333333 -0.933333333333333 1
0.1 -0.1 -0.9 1
0.0666666666666669 -0.0666666666666669 -0.866666666666667 1
0.0333333333333334 -0.0333333333333334 -0.833333333333333 1
0 0 -0.8 1
-0.0333333333333332 0.0333333333333332 -0.766666666666667 1
-0.0666666666666667 0.0666666666666667 -0.733333333333333 1
-0.0999999999999999 0.0999999999999999 -0.7 1
-0.133333333333333 0.133333333333333 -0.666666666666667 1
-0.166666666666667 0.166666666666667 -0.633333333333333 1
-0.2 0.2 -0.6 1
-0.233333333333333 0.233333333333333 -0.566666666666666 1
-0.266666666666667 0.266666666666667 -0.533333333333333 1
-0.3 0.3 -0.5 1
-0.333333333333333 0.333333333333333 -0.466666666666667 1
-0.366666666666667 0.366666666666667 -0.433333333333333 1
-0.366666666666667 0.366666666666667 -0.366666666666667 1
-0.4 0.4 -0.333333333333333 1
-0.433333333333333 0.433333333333333 -0.3 1
-0.466666666666667 0.466666666666667 -0.266666666666667 1
-0.5 0.5 -0.233333333333333 1
-0.533333333333333 0.533333333333333 -0.2 1
-0.566666666666667 0.566666666666667 -0.166666666666667 1
-0.6 0.6 -0.133333333333333 1
-0.633333333333333 0.633333333333333 -0.1 1
-0.666666666666667 0.666666666666667 -0.0666666666666667 1
-0.7 0.7 -0.0333333333333334 1
-0.733333333333333 0.733333333333333 0 1
0.233333333333333 -0.233333333333333 -0.966666666666667 1
0.2 -0.2 -0.933333333333333 1
0.166666666666667 -0.166666666666667 -0.9 1
0.133333333333333 -0.133333333333333 -0.866666666666667 1
0.1 -0.1 -0.833333333333333 1
0.0666666666666667 -0.0666666666666667 -0.8 1
0.0333333333333332 -0.0333333333333332 -0.766666666666667 1
0 0 -0.733333333333333 1
-0.0333333333333334 0.0333333333333334 -0.7 1
-0.0666666666666667 0.0666666666666667 -0.666666666666667 1
-0.1 0.1 -0.633333333333333 1
-0.133333333333333 0.133333333333333 -0.6 1
-0.166666666666667 0.166666666666667 -0.566666666666667 1
-0.2 0.2 -0.533333333333333 1
-0.233333333333333 0.233333333333333 -0.5 1
-0.266666666666667 0.266666666666667 -0.466666666666667 1
-0.3 0.3 -0.433333333333333 1
-0.333333333333333 0.333333333333333 -0.4 1
-0.333333333333333 0.333333333333333 -0.333333333333333 1
-0.366666666666667 0.366666666666667 -0.3 1
-0.4 0.4 -0.266666666666667 1
-0.433333333333333 0.433333333333333 -0.233333333333333 1
-0.466666666666667 0.466666666666667 -0.2 1
-0.5 0.5 -0.166666666666667 1
-0.533333333333333 0.533333333333333 -0.133333333333333 1
-0.566666666666667 0.566666666666667 -0.0999999999999999 1
-0.6 0.6 -0.0666666666666667 1
-0.633333333333333 0.633333333333333 -0.0333333333333332 1
-0.666666666666667 0.666666666666667 0 1
-0.7 0.7 0.0333333333333334 1
0.266666666666667 -0.266666666666667 -0.933333333333333 1
0.233333333333333 -0.233333333333333 -0.9 1
0.2 -0.2 -0.866666666666667 1
0.166666666666667 -0.166666666666667 -0.833333333333333 1
0.133333333333333 -0.133333333333333 -0.8 1
0.1 -0.1 -0.766666666666667 1
0.0666666666666667 -0.0666666666666667 -0.733333333333333 1
0.0333333333333334 -0.0333333333333334 -0.7 1
0 0 -0.666666666666667 1
-0.0333333333333332 0.0333333333333332 -0.633333333333333 1
-0.0666666666666667 0.0666666666666667 -0.6 1
-0.0999999999999999 0.0999999999999999 -0.566666666666667 1
-0.133333333333333 0.133333333333333 -0.533333333333333 1
-0.166666666666667 0.166666666666667 -0.5 1
-0.2 0.2 -0.466666666666667 1
-0.233333333333333 0.233333333333333 -0.433333333333333 1
-0.266666666666667 0.266666666666667 -0.4 1
-0.3 0.3 -0.366666666666667 1
-0.3 0.3 -0.3 1
-0.333333333333333 0.333333333333333 -0.266666666666667 1
-0.366666666666667 0.366666666666667 -0.233333333333333 1
-0.4 0.4 -0.2 1
-0.433333333333333 0.433333333333333 -0.166666666666667 1
-0.466666666666667 0.466666666666667 -0.133333333333333 1
-0.5 0.5 -0.1 1
-0.533333333333333 0.533333333333333 -0.0666666666666667 1
-0.566666666666667 0.566666666666667 -0.0333333333333334 1
-0.6 0.6 0 1
-0.633333333333333 0.633333333333333 0.0333333333333332 1
-0.666666666666667 0.666666666666667 0.0666666666666667 1
0.3 -0.3 -0.9 1
0.266666666666667 -0.266666666666667 -0.866666666666667 1
0.233333333333333 -0.233333333333333 -0.833333333333333 1
0.2 -0.2 -0.8 1
0.166666666666667 -0.166666666666667 -0.766666666666667 1
0.133333333333333 -0.133333333333333 -0.733333333333333 1
0.0999999999999999 -0.0999999999999999 -0.7 1
0.0666666666666667 -0.0666666666666667 -0.666666666666667 1
0.0333333333333332 -0.0333333333333332 -0.633333333333333 1
0 0 -0.6 1
-0.0333333333333334 0.0333333333333334 -0.566666666666667 1
-0.0666666666666667 0.0666666666666667 -0.533333333333333 1
-0.1 0.1 -0.5 1
-0.133333333333333 0.133333333333333 -0.466666666666667 1
-0.166666666666667 0.166666666666667 -0.433333333333333 1
-0.2 0.2 -0.4 1
-0.233333333333333 0.233333333333333 -0.366666666666667 1
-0.266666666666667 0.266666666666667 -0.333333333333333 1
-0.266666666666667 0.266666666666667 -0.266666666666667 1
-0.3 0.3 -0.233333333333333 1
-0.333333333333333 0.333333333333333 -0.2 1
-0.366666666666667 0.366666666666667 -0.166666666666667 1
-0.4 0.4 -0.133333333333333 1
-0.433333333333333 0.433333333333333 -0.1 1
-0.466666666666667 0.466666666666667 -0.0666666666666667 1
-0.5 0.5 -0.0333333333333332 1
-0.533333333333333 0.533333333333333 0 1