125000
125000
0 0 0 1
-0.02 0.02 0.02 1
-0.04 0.04 0.04 1
-0.06 0.06 0.06 1
-0.08 0.08 0.08 1
-0.1 0.1 0.1 1
-0.12 0.12 0.12 1
-0.14 0.14 0.14 1
-0.16 0.16 0.16 1
-0.18 0.18 0.18 1
-0.2 0.2 0.2 1
-0.22 0.22 0.22 1
-0.24 0.24 0.24 1
-0.26 0.26 0.26 1
-0.28 0.28 0.28 1
-0.3 0.3 0.3 1
-0.32 0.32 0.32 1
-0.34 0.34 0.34 1
-0.36 0.36 0.36 1
-0.38 0.38 0.38 1
-0.4 0.4 0.4 1
-0.42 0.42 0.42 1
-0.44 0.44 0.44 1
-0.46 0.46 0.46 1
-0.48 0.48 0.48 1
-0.5 0.5 0.5 1
0.48 -0.48 -0.48 1
0.46 -0.46 -0.46 1
0.44 -0.44 -0.44 1
0.42 -0.42 -0.42 1
0.4 -0.4 -0.4 1
0.38 -0.38 -0.38 1
0.36 -0.36 -0.36 1
0.34 -0.34 -0.34 1
0.32 -0.32 -0.32 1
0.3 -0.3 -0.3 1
0.28 -0.28 -0.28 1
0.26 -0.26 -0.26 1
0.24 -0.24 -0.24 1
0.22 -0.22 -0.22 1
0.2 -0.2 -0.2 1
0.18 -0.18 -0.18 1
0.16 -0.16 -0.16 1
0.14 -0.14 -0.14 1
0.12 -0.12 -0.12 1
0.1 -0.1 -0.1 1
0.0800000000000001 -0.0800000000000001 -0.0800000000000001 1
0.0600000000000001 -0.0600000000000001 -0.0600000000000001 1
0.04 -0.04 -0.04 1
0.02 -0.02 -0.02 1
0.02 -0.02 0.02 1
0 0 0.04 1
-0.02 0.02 0.06 1
-0.04 0.04 0.08 1
-0.06 0.06 0.1 1
-0.08 0.08 0.12 1
-0.1 0.1 0.14 1
-0.12 0.12 0.16 1
-0.14 0.14 0.18 1
-0.16 0.16 0.2 1
-0.18 0.18 0.22 1
-0.2 0.2 0.24 1
-0.22 0.22 0.26 1
-0.24 0.24 0.28 1
-0.26 0.26 0.3 1
-0.28 0.28 0.32 1
-0.3 0.3 0.34 1
-0.32 0.32 0.36 1
-0.34 0.34 0.38 1
-0.36 0.36 0.4 1
-0.38 0.38 0.42 1
-0.4 0.4 0.44 1
-0.42 0.42 0.46 1
-0.44 0.44 0.48 1
-0.46 0.46 0.5 1
-0.48 0.48 0.52 1
0.5 -0.5 -0.46 1
0.48 -0.48 -0.44 1
0.46 -0.46 -0.42 1
0.44 -0.44 -0.4 1
0.42 -0.42 -0.38 1
0.4 -0.4 -0.36 1
0.38 -0.38 -0.34 1
0.36 -0.36 -0.32 1
0.34 -0.34 -0.3 1
0.32 -0.32 -0.28 1
0.3 -0.3 -0.26 1
0.28 -0.28 -0.24 1
0.26 -0.26 -0.22 1
0.24 -0.24 -0.2 1
0.22 -0.22 -0.18 1
0.2 -0.2 -0.16 1
0.18 -0.18 -0.14 1
0.16 -0.16 -0.12 1
0.14 -0.14 -0.1 1
0.12 -0.12 -0.08 1
0.1 -0.1 -0.0600000000000001 1
0.0800000000000001 -0.0800000000000001 -0.04 1
0.0600000000000001 -0.0600000000000001 -0.02 1
0.04 -0.04 0 1
0.04 -0.04 0.04 1
0.02 -0.02 0.06 1
0 0 0.08 1
-0.02 0.02 0.1 1
-0.04 0.04 0.12 1
-0.06 0.06 0.14 1
-0.08 0.08 0.16 1
-0.1 0.1 0.18 1
-0.12 0.12 0.2 1
-0.14 0.14 0.22 1
-0.16 0.16 0.24 1
-0.18 0.18 0.26 1
-0.2 0.2 0.28 1
-0.22 0.22 0.3 1
-0.24 0.24 0.32 1
-0.26 0.26 0.34 1
-0.28 0.28 0.36 1
-0.3 0.3 0.38 1
-0.32 0.32 0.4 1
-0.34 0.34 0.42 1
-0.36 0.36 0.44 1
-0.38 0.38 0.46 1
-0.4 0.4 0.48 1
-0.42 0.42 0.5 1
-0.44 0.44 0.52 1
-0.46 0.46 0.54 1
0.52 -0.52 -0.44 1
0.5 -0.5 -0.42 1
0.48 -0.48 -0.4 1
0.46 -0.46 -0.38 1
0.44 -0.44 -0.36 1
0.42 -0.42 -0.34 1
0.4 -0.4 -0.32 1
0.38 -0.38 -0.3 1
0.36 -0.36 -0.28 1
0.34 -0.34 -0.26 1
0.32 -0.32 -0.24 1
0.3 -0.3 -0.22 1
0.28 -0.28 -0.2 1
0.26 -0.26 -0.18 1
0.24 -0.24 -0.16 1
0.22 -0.22 -0.14 1
0.2 -0.2 -0.12 1
0.18 -0.18 -0.1 1
0.16 -0.16 -0.08 1
0.14 -0.14 -0.0599999999999999 1
0.12 -0.12 -0.04 1
0.1 -0.1 -0.02 1
0.0800000000000001 -0.0800000000000001 0 1
0.0600000000000001 -0.0600000000000001 0.02 1
0.06 -0.06 0.06 1
0.04 -0.04 0.08 1
0.02 -0.02 0.1 1
0 0 0.12 1
-0.02 0.02 0.14 1
-0.04 0.04 0.16 1
-0.06 0.06 0.18 1
-0.08 0.08 0.2 1
-0.1 0.1 0.22 1
-0.12 0.12 0.24 1
-0.14 0.14 0.26 1
-0.16 0.16 0.28 1
-0.18 0.18 0.3 1
-0.2 0.2 0.32 1
-0.22 0.22 0.34 1
-0.24 0.24 0.36 1
-0.26 0.26 0.38 1
-0.28 0.28 0.4 1
-0.3 0.3 0.42 1
-0.32 0.32 0.44 1
-0.34 0.34 0.46 1
-0.36 0.36 0.48 1
-0.38 0.38 0.5 1
-0.4 0.4 0.52 1
-0.42 0.42 0.54 1
-0.44 0.44 0.56 1
-0.46 0.46 0.58 1
0.52 -0.52 -0.4 1
0.5 -0.5 -0.38 1
0.48 -0.48 -0.36 1
0.46 -0.46 -0.34 1
0.44 -0.44 -0.32 1
0.42 -0.42 -0.3 1
0.4 -0.4 -0.28 1
0.38 -0.38 -0.26 1
0.36 -0.36 -0.24 1
0.34 -0.34 -0.22 1
0.32 -0.32 -0.2 1
0.3 -0.3 -0.18 1
0.28 -0.28 -0.16 1
0.26 -0.26 -0.14 1
0.24 -0.24 -0.12 1
0.22 -0.22 -0.1 1
0.2 -0.2 -0.0800000000000001 1
0.18 -0.18 -0.0600000000000001 1
0.16 -0.16 -0.04 1
0.14 -0.14 -0.02 1
0.12 -0.12 0 1
0.1 -0.1 0.02 1
0.0800000000000001 -0.0800000000000001 0.04 1
0.08 -0.08 0.08 1
0.06 -0.06 0.1 1
0.04 -0.04 0.12 1
0.02 -0.02 0.14 1
0 0 0.16 1
-0.02 0.02 0.18 1
-0.04 0.04 0.2 1
-0.06 0.06 0.22 1
-0.08 0.08 0.24 1
-0.1 0.1 0.26 1
-0.12 0.12 0.28 1
-0.14 0.14 0.3 1
-0.16 0.16 0.32 1
-0.18 0.18 0.34 1
-0.2 0.2 0.36 1
-0.22 0.22 0.38 1
-0.24 0.24 0.4 1
-0.26 0.26 0.42 1
-0.28 0.28 0.44 1
-0.3 0.3 0.46 1
-0.32 0.32 0.48 1
-0.34 0.34 0.5 1
-0.36 0.36 0.52 1
-0.38 0.38 0.54 1
-0.4 0.4 0.56 1
-0.42 0.42 0.58 1
-0.44 0.44 0.6 1
0.54 -0.54 -0.38 1
0.52 -0.52 -0.36 1
0.5 -0.5 -0.34 1
0.48 -0.48 -0.32 1
0.46 -0.46 -0.3 1
0.44 -0.44 -0.28 1
0.42 -0.42 -0.26 1
0.4 -0.4 -0.24 1
0.38 -0.38 -0.22 1
0.36 -0.36 -0.2 1
0.34 -0.34 -0.18 1
0.32 -0.32 -0.16 1
0.3 -0.3 -0.14 1
0.28 -0.28 -0.12 1
0.26 -0.26 -0.1 1
0.24 -0.24 -0.0800000000000001 1
0.22 -0.22 -0.0600000000000001 1
0.2 -0.2 -0.04 1
0.18 -0.18 -0.02 1
0.16 -0.16 -1.11022302462516e-16 1
0.14 -0.14 0.02 1
0.12 -0.12 0.04 1
0.1 -0.1 0.0600000000000001 1
0.1 -0.1 0.1 1
0.08 -0.08 0.12 1
0.06 -0.06 0.14 1
0.04 -0.04 0.16 1
0.02 -0.02 0.18 1
0 0 0.2 1
-0.02 0.02 0.22 1
-0.04 0.04 0.24 1
-0.06 0.06 0.26 1
-0.08 0.08 0.28 1
-0.1 0.1 0.3 1
-0.12 0.12 0.32 1
-0.14 0.14 0.34 1
-0.16 0.16 0.36 1
-0.18 0.18 0.38 1
-0.2 0.2 0.4 1
-0.22 0.22 0.42 1
-0.24 0.24 0.44 1
-0.26 0.26 0.46 1
-0.28 0.28 0.48 1
-0.3 0.3 0.5 1
-0.32 0.32 0.52 1
-0.34 0.34 0.54 1
-0.36 0.36 0.56 1
-0.38 0.38 0.58 1
-0.4 0.4 0.6 1
-0.42 0.42 0.62 1
0.56 -0.56 -0.36 1
0.54 -0.54 -0.34 1
0.52 -0.52 -0.32 1
0.5 -0.5 -0.3 1
0.48 -0.48 -0.28 1
0.46 -0.46 -0.26 1
0.44 -0.44 -0.24 1
0.42 -0.42 -0.22 1
0.4 -0.4 -0.2 1
0.38 -0.38 -0.18 1
0.36 -0.36 -0.16 1
0.34 -0.34 -0.14 1
0.32 -0.32 -0.12 1
0.3 -0.3 -0.1 1
0.28 -0.28 -0.0800000000000001 1
0.26 -0.26 -0.0600000000000001 1
0.24 -0.24 -0.04 1
0.22 -0.22 -0.02 1
0.2 -0.2 0 1
0.18 -0.18 0.02 1
0.16 -0.16 0.04 1
0.14 -0.14 0.0600000000000001 1
0.12 -0.12 0.0800000000000001 1
0.12 -0.12 0.12 1
0.1 -0.1 0.14 1
0.08 -0.08 0.16 1
0.06 -0.06 0.18 1
0.04 -0.04 0.2 1
0.02 -0.02 0.22 1
0 0 0.24 1
-0.02 0.02 0.26 1
-0.04 0.04 0.28 1
-0.06 0.06 0.3 1
-0.08 0.08 0.32 1
-0.1 0.1 0.34 1
-0.12 0.12 0.36 1
-0.14 0.14 0.38 1
-0.16 0.16 0.4 1
-0.18 0.18 0.42 1
-0.2 0.2 0.44 1
-0.22 0.22 0.46 1
-0.24 0.24 0.48 1
-0.26 0.26 0.5 1
-0.28 0.28 0.52 1
-0.3 0.3 0.54 1
-0.32 0.32 0.56 1
-0.34 0.34 0.58 1
-0.36 0.36 0.6 1
-0.38 0.38 0.62 1
-0.4 0.4 0.64 1
0.58 -0.58 -0.34 1
0.56 -0.56 -0.32 1
0.54 -0.54 -0.3 1
0.52 -0.52 -0.28 1
0.5 -0.5 -0.26 1
0.48 -0.48 -0.24 1
0.46 -0.46 -0.22 1
0.44 -0.44 -0.2 1
0.42 -0.42 -0.18 1
0.4 -0.4 -0.16 1
0.38 -0.38 -0.14 1
0.36 -0.36 -0.12 1
0.34 -0.34 -0.1 1
0.32 -0.32 -0.08 1
0.3 -0.3 -0.0600000000000001 1
0.28 -0.28 -0.04 1
0.26 -0.26 -0.02 1
0.24 -0.24 0 1
0.22 -0.22 0.02 1
0.2 -0.2 0.04 1
0.18 -0.18 0.0600000000000001 1
0.16 -0.16 0.0800000000000001 1
0.14 -0.14 0.1 1
0.14 -0.14 0.14 1
0.12 -0.12 0.16 1
0.1 -0.1 0.18 1
0.08 -0.08 0.2 1
0.06 -0.06 0.22 1
0.04 -0.04 0.24 1
0.02 -0.02 0.26 1
0 0 0.28 1
-0.02 0.02 0.3 1
-0.04 0.04 0.32 1
-0.06 0.06 0.34 1
-0.08 0.08 0.36 1
-0.1 0.1 0.38 1
-0.12 0.12 0.4 1
-0.14 0.14 0.42 1
-0.16 0.16 0.44 1
-0.18 0.18 0.46 1
-0.2 0.2 0.48 1
-0.22 0.22 0.5 1
-0.24 0.24 0.52 1
-0.26 0.26 0.54 1
-0.28 0.28 0.56 1
-0.3 0.3 0.58 1
-0.32 0.32 0.6 1
-0.34 0.34 0.62 1
-0.36 0.36 0.64 1
-0.38 0.38 0.66 1
-0.4 0.4 0.68 1
0.58 -0.58 -0.3 1
0.56 -0.56 -0.28 1
0.54 -0.54 -0.26 1
0.52 -0.52 -0.24 1
0.5 -0.5 -0.22 1
0.48 -0.48 -0.2 1
0.46 -0.46 -0.18 1
0.44 -0.44 -0.16 1
0.42 -0.42 -0.14 1
0.4 -0.4 -0.12 1
0.38 -0.38 -0.1 1
0.36 -0.36 -0.08 1
0.34 -0.34 -0.0599999999999999 1
0.32 -0.32 -0.04 1
0.3 -0.3 -0.02 1
0.28 -0.28 0 1
0.26 -0.26 0.02 1
0.24 -0.24 0.04 1
0.22 -0.22 0.0600000000000001 1
0.2 -0.2 0.0800000000000001 1
0.18 -0.18 0.1 1
0.16 -0.16 0.12 1
0.16 -0.16 0.16 1
0.14 -0.14 0.18 1
0.12 -0.12 0.2 1
0.1 -0.1 0.22 1
0.08 -0.08 0.24 1
0.06 -0.06 0.26 1
0.04 -0.04 0.28 1
0.02 -0.02 0.3 1
0 0 0.32 1
-0.02 0.02 0.34 1
-0.04 0.04 0.36 1
-0.06 0.06 0.38 1
-0.08 0.08 0.4 1
-0.1 0.1 0.42 1
-0.12 0.12 0.44 1
-0.14 0.14 0.46 1
-0.16 0.16 0.48 1
-0.18 0.18 0.5 1
-0.2 0.2 0.52 1
-0.22 0.22 0.54 1
-0.24 0.24 0.56 1
-0.26 0.26 0.58 1
-0.28 0.28 0.6 1
-0.3 0.3 0.62 1
-0.32 0.32 0.64 1
-0.34 0.34 0.66 1
-0.36 0.36 0.68 1
-0.38 0.38 0.7 1
0.6 -0.6 -0.28 1
0.58 -0.58 -0.26 1
0.56 -0.56 -0.24 1
0.54 -0.54 -0.22 1
0.52 -0.52 -0.2 1
0.5 -0.5 -0.18 1
0.48 -0.48 -0.16 1
0.46 -0.46 -0.14 1
0.44 -0.44 -0.12 1
0.42 -0.42 -0.1 1
0.4 -0.4 -0.08 1
0.38 -0.38 -0.0599999999999999 1
0.36 -0.36 -0.0399999999999999 1
0.34 -0.34 -0.02 1
0.32 -0.32 0 1
0.3 -0.3 0.02 1
0.28 -0.28 0.04 1
0.26 -0.26 0.0600000000000001 1
0.24 -0.24 0.0799999999999998 1
0.22 -0.22 0.0999999999999999 1
0.2 -0.2 0.12 1
0.18 -0.18 0.14 1
0.18 -0.18 0.18 1
0.16 -0.16 0.2 1
0.14 -0.14 0.22 1
0.12 -0.12 0.24 1
0.1 -0.1 0.26 1
0.08 -0.08 0.28 1
0.06 -0.06 0.3 1
0.04 -0.04 0.32 1
0.02 -0.02 0.34 1
0 0 0.36 1
-0.02 0.02 0.38 1
-0.04 0.04 0.4 1
-0.06 0.06 0.42 1
-0.08 0.08 0.44 1
-0.1 0.1 0.46 1
-0.12 0.12 0.48 1
-0.14 0.14 0.5 1
-0.16 0.16 0.52 1
-0.18 0.18 0.54 1
-0.2 0.2 0.56 1
-0.22 0.22 0.58 1
-0.24 0.24 0.6 1
-0.26 0.26 0.62 1
-0.28 0.28 0.64 1
-0.3 0.3 0.66 1
-0.32 0.32 0.68 1
-0.34 0.34 0.7 1
-0.36 0.36 0.72 1
0.62 -0.62 -0.26 1
0.6 -0.6 -0.24 1
0.58 -0.58 -0.22 1
0.56 -0.56 -0.2 1
0.54 -0.54 -0.18 1
0.52 -0.52 -0.16 1
0.5 -0.5 -0.14 1
0.48 -0.48 -0.12 1
0.46 -0.46 -0.1 1
0.44 -0.44 -0.0800000000000001 1
0.42 -0.42 -0.0600000000000001 1
0.4 -0.4 -0.04 1
0.38 -0.38 -0.02 1
0.36 -0.36 0 1
0.34 -0.34 0.02 1
0.32 -0.32 0.04 1
0.3 -0.3 0.0600000000000001 1
0.28 -0.28 0.0800000000000001 1
0.26 -0.26 0.0999999999999999 1
0.24 -0.24 0.12 1
0.22 -0.22 0.14 1
0.2 -0.2 0.16 1
0.2 -0.2 0.2 1
0.18 -0.18 0.22 1
0.16 -0.16 0.24 1
0.14 -0.14 0.26 1
0.12 -0.12 0.28 1
0.1 -0.1 0.3 1
0.08 -0.08 0.32 1
0.06 -0.06 0.34 1
0.04 -0.04 0.36 1
0.02 -0.02 0.38 1
0 0 0.4 1
-0.02 0.02 0.42 1
-0.04 0.04 0.44 1
-0.06 0.06 0.46 1
-0.08 0.08 0.48 1
-0.1 0.1 0.5 1
-0.12 0.12 0.52 1
-0.14 0.14 0.54 1
-0.16 0.16 0.56 1
-0.18 0.18 0.58 1
-0.2 0.2 0.6 1
-0.22 0.22 0.62 1
-0.24 0.24 0.64 1
-0.26 0.26 0.66 1
-0.28 0.28 0.68 1
-0.3 0.3 0.7 1
-0.32 0.32 0.72 1
-0.34 0.34 0.74 1
-0.36 0.36 0.76 1
0.62 -0.62 -0.22 1
0.6 -0.6 -0.2 1
0.58 -0.58 -0.18 1
0.56 -0.56 -0.16 1
0.54 -0.54 -0.14 1
0.52 -0.52 -0.12 1
0.5 -0.5 -0.1 1
0.48 -0.48 -0.0800000000000001 1
0.46 -0.46 -0.0600000000000001 1
0.44 -0.44 -0.04 1
0.42 -0.42 -0.02 1
0.4 -0.4 0 1
0.38 -0.38 0.02 1
0.36 -0.36 0.04 1
0.34 -0.34 0.0600000000000001 1
0.32 -0.32 0.0800000000000001 1
0.3 -0.3 0.1 1
0.28 -0.28 0.12 1
0.26 -0.26 0.14 1
0.24 -0.24 0.16 1
0.22 -0.22 0.18 1
0.22 -0.22 0.22 1
0.2 -0.2 0.24 1
0.18 -0.18 0.26 1
0.16 -0.16 0.28 1
0.14 -0.14 0.3 1
0.12 -0.12 0.32 1
0.1 -0.1 0.34 1
0.08 -0.08 0.36 1
0.06 -0.06 0.38 1
0.04 -0.04 0.4 1
0.02 -0.02 0.42 1
0 0 0.44 1
-0.02 0.02 0.46 1
-0.04 0.04 0.48 1
-0.06 0.06 0.5 1
-0.08 0.08 0.52 1
-0.1 0.1 0.54 1
-0.12 0.12 0.56 1
-0.14 0.14 0.58 1
-0.16 0.16 0.6 1
-0.18 0.18 0.62 1
-0.2 0.2 0.64 1
-0.22 0.22 0.66 1
-0.24 0.24 0.68 1
-0.26 0.26 0.7 1
-0.28 0.28 0.72 1
-0.3 0.3 0.74 1
-0.32 0.32 0.76 1
-0.34 0.34 0.78 1
0.64 -0.64 -0.2 1
0.62 -0.62 -0.18 1
0.6 -0.6 -0.16 1
0.58 -0.58 -0.14 1
0.56 -0.56 -0.12 1
0.54 -0.54 -0.1 1
0.52 -0.52 -0.0800000000000001 1
0.5 -0.5 -0.0600000000000001 1
0.48 -0.48 -0.04 1
0.46 -0.46 -0.02 1
0.44 -0.44 0 1
0.42 -0.42 0.02 1
0.4 -0.4 0.04 1
0.38 -0.38 0.0600000000000001 1
0.36 -0.36 0.0800000000000001 1
0.34 -0.34 0.1 1
0.32 -0.32 0.12 1
0.3 -0.3 0.14 1
0.28 -0.28 0.16 1
0.26 -0.26 0.18 1
0.24 -0.24 0.2 1
0.24 -0.24 0.24 1
0.22 -0.22 0.26 1
0.2 -0.2 0.28 1
0.18 -0.18 0.3 1
0.16 -0.16 0.32 1
0.14 -0.14 0.34 1
0.12 -0.12 0.36 1
0.1 -0.1 0.38 1
0.08 -0.08 0.4 1
0.06 -0.06 0.42 1
0.04 -0.04 0.44 1
0.02 -0.02 0.46 1
0 0 0.48 1
-0.02 0.02 0.5 1
-0.04 0.04 0.52 1
-0.06 0.06 0.54 1
-0.08 0.08 0.56 1
-0.1 0.1 0.58 1
-0.12 0.12 0.6 1
-0.14 0.14 0.62 1
-0.16 0.16 0.64 1
-0.18 0.18 0.66 1
-0.2 0.2 0.68 1
-0.22 0.22 0.7 1
-0.24 0.24 0.72 1
-0.26 0.26 0.74 1
-0.28 0.28 0.76 1
-0.3 0.3 0.78 1
-0.32 0.32 0.8 1
-0.34 0.34 0.82 1
0.64 -0.64 -0.16 1
0.62 -0.62 -0.14 1
0.6 -0.6 -0.12 1
0.58 -0.58 -0.1 1
0.56 -0.56 -0.0800000000000001 1
0.54 -0.54 -0.0600000000000001 1
0.52 -0.52 -0.04 1
0.5 -0.5 -0.02 1
0.48 -0.48 0 1
0.46 -0.46 0.02 1
0.44 -0.44 0.04 1
0.42 -0.42 0.0600000000000001 1
0.4 -0.4 0.0800000000000001 1
0.38 -0.38 0.1 1
0.36 -0.36 0.12 1
0.34 -0.34 0.14 1
0.32 -0.32 0.16 1
0.3 -0.3 0.18 1
0.28 -0.28 0.2 1
0.26 -0.26 0.22 1
0.26 -0.26 0.26 1
0.24 -0.24 0.28 1
0.22 -0.22 0.3 1
0.2 -0.2 0.32 1
0.18 -0.18 0.34 1
0.16 -0.16 0.36 1
0.14 -0.14 0.38 1
0.12 -0.12 0.4 1
0.1 -0.1 0.42 1
0.08 -0.08 0.44 1
0.06 -0.06 0.46 1
0.04 -0.04 0.48 1
0.02 -0.02 0.5 1
0 0 0.52 1
-0.02 0.02 0.54 1
-0.04 0.04 0.56 1
-0.06 0.06 0.58 1
-0.08 0.08 0.6 1
-0.1 0.1 0.62 1
-0.12 0.12 0.64 1
-0.14 0.14 0.66 1
-0.16 0.16 0.68 1
-0.18 0.18 0.7 1
-0.2 0.2 0.72 1
-0.22 0.22 0.74 1
-0.24 0.24 0.76 1
-0.26 0.26 0.78 1
-0.28 0.28 0.8 1
-0.3 0.3 0.82 1
-0.32 0.32 0.84 1
0.66 -0.66 -0.14 1
0.64 -0.64 -0.12 1
0.62 -0.62 -0.1 1
0.6 -0.6 -0.0800000000000001 1
0.58 -0.58 -0.0600000000000001 1
0.56 -0.56 -0.04 1
0.54 -0.54 -0.02 1
0.52 -0.52 0 1
0.5 -0.5 0.02 1
0.48 -0.48 0.04 1
0.46 -0.46 0.0600000000000001 1
0.44 -0.44 0.0800000000000001 1
0.42 -0.42 0.1 1
0.4 -0.4 0.12 1
0.38 -0.38 0.14 1
0.36 -0.36 0.16 1
0.34 -0.34 0.18 1
0.32 -0.32 0.2 1
0.3 -0.3 0.22 1
0.28 -0.28 0.24 1
0.28 -0.28 0.28 1
0.26 -0.26 0.3 1
0.24 -0.24 0.32 1
0.22 -0.22 0.34 1
0.2 -0.2 0.36 1
0.18 -0.18 0.38 1
0.16 -0.16 0.4 1
0.14 -0.14 0.42 1
0.12 -0.12 0.44 1
0.1 -0.1 0.46 1
0.08 -0.08 0.48 1
0.06 -0.06 0.5 1
0.04 -0.04 0.52 1
0.02 -0.02 0.54 1
0 0 0.56 1
-0.02 0.02 0.58 1
-0.04 0.04 0.6 1
-0.06 0.06 0.62 1
-0.08 0.08 0.64 1
-0.1 0.1 0.66 1
-0.12 0.12 0.68 1
-0.14 0.14 0.7 1
-0.16 0.16 0.72 1
-0.18 0.18 0.74 1
-0.2 0.2 0.76 1
-0.22 0.22 0.78 1
-0.24 0.24 0.8 1
-0.26 0.26 0.82 1
-0.28 0.28 0.84 1
-0.3 0.3 0.86 1
0.68 -0.68 -0.12 1
0.66 -0.66 -0.1 1
0.64 -0.64 -0.0800000000000001 1
0.62 -0.62 -0.0600000000000001 1
0.6 -0.6 -0.04 1
0.58 -0.58 -0.02 1
0.56 -0.56 0 1
0.54 -0.54 0.02 1
0.52 -0.52 0.04 1
0.5 -0.5 0.0600000000000001 1
0.48 -0.48 0.0800000000000001 1
0.46 -0.46 0.1 1
0.44 -0.44 0.12 1
0.42 -0.42 0.14 1
0.4 -0.4 0.16 1
0.38 -0.38 0.18 1
0.36 -0.36 0.2 1
0.34 -0.34 0.22 1
0.32 -0.32 0.24 1
0.3 -0.3 0.26 1
0.3 -0.3 0.3 1
0.28 -0.28 0.32 1
0.26 -0.26 0.34 1
0.24 -0.24 0.36 1
0.22 -0.22 0.38 1
0.2 -0.2 0.4 1
0.18 -0.18 0.42 1
0.16 -0.16 0.44 1
0.14 -0.14 0.46 1
0.12 -0.12 0.48 1
0.1 -0.1 0.5 1
0.08 -0.08 0.52 1
0.06 -0.06 0.54 1
0.04 -0.04 0.56 1
0.02 -0.02 0.58 1
0 0 0.6 1
-0.02 0.02 0.62 1
-0.04 0.04 0.64 1
-0.06 0.06 0.66 1
-0.08 0.08 0.68 1
-0.1 0.1 0.7 1
-0.12 0.12 0.72 1
-0.14 0.14 0.74 1
-0.16 0.16 0.76 1
-0.18 0.18 0.78 1
-0.2 0.2 0.8 1
-0.22 0.22 0.82 1
-0.24 0.24 0.84 1
-0.26 0.26 0.86 1
-0.28 0.28 0.88 1
-0.3 0.3 0.9 1
0.68 -0.68 -0.0800000000000001 1
0.66 -0.66 -0.0600000000000001 1
0.64 -0.64 -0.04 1
0.62 -0.62 -0.02 1
0.6 -0.6 0 1
0.58 -0.58 0.02 1
0.56 -0.56 0.04 1
0.54 -0.54 0.0600000000000001 1
0.52 -0.52 0.0800000000000001 1
0.5 -0.5 0.1 1
0.48 -0.48 0.12 1
0.46 -0.46 0.14 1
0.44 -0.44 0.16 1
0.42 -0.42 0.18 1
0.4 -0.4 0.2 1
0.38 -0.38 0.22 1
0.36 -0.36 0.24 1
0.34 -0.34 0.26 1
0.32 -0.32 0.28 1
0.32 -0.32 0.32 1
0.3 -0.3 0.34 1
0.28 -0.28 0.36 1
0.26 -0.26 0.38 1
0.24 -0.24 0.4 1
0.22 -0.22 0.42 1
0.2 -0.2 0.44 1
0.18 -0.18 0.46 1
0.16 -0.16 0.48 1
0.14 -0.14 0.5 1
0.12 -0.12 0.52 1
0.1 -0.1 0.54 1
0.08 -0.08 0.56 1
0.06 -0.06 0.58 1
0.04 -0.04 0.6 1
0.02 -0.02 0.62 1
0 0 0.64 1
-0.02 0.02 0.66 1
-0.04 0.04 0.68 1
-0.06 0.06 0.7 1
-0.08 0.08 0.72 1
-0.1 0.1 0.74 1
-0.12 0.12 0.76 1
-0.14 0.14 0.78 1
-0.16 0.16 0.8 1
-0.18 0.18 0.82 1
-0.2 0.2 0.84 1
-0.22 0.22 0.86 1
-0.24 0.24 0.88 1
-0.26 0.26 0.9 1
-0.28 0.28 0.92 1
0.7 -0.7 -0.0600000000000001 1
0.68 -0.68 -0.04 1
0.66 -0.66 -0.02 1
0.64 -0.64 0 1
0.62 -0.62 0.02 1
0.6 -0.6 0.04 1
0.58 -0.58 0.0600000000000001 1
0.56 -0.56 0.0800000000000001 1
0.54 -0.54 0.1 1
0.52 -0.52 0.12 1
0.5 -0.5 0.14 1
0.48 -0.48 0.16 1
0.46 -0.46 0.18 1
0.44 -0.44 0.2 1
0.42 -0.42 0.22 1
0.4 -0.4 0.24 1
0.38 -0.38 0.26 1
0.36 -0.36 0.28 1
0.34 -0.34 0.3 1
0.34 -0.34 0.34 1
0.32 -0.32 0.36 1
0.3 -0.3 0.38 1
0.28 -0.28 0.4 1
0.26 -0.26 0.42 1
0.24 -0.24 0.44 1
0.22 -0.22 0.46 1
0.2 -0.2 0.48 1
0.18 -0.18 0.5 1
0.16 -0.16 0.52 1
0.14 -0.14 0.54 1
0.12 -0.12 0.56 1
0.1 -0.1 0.58 1
0.08 -0.08 0.6 1
0.06 -0.06 0.62 1
0.04 -0.04 0.64 1
0.02 -0.02 0.66 1
0 0 0.68 1
-0.02 0.02 0.7 1
-0.04 0.04 0.72 1
-0.06 0.06 0.74 1
-0.08 0.08 0.76 1
-0.1 0.1 0.78 1
-0.12 0.12 0.8 1
-0.14 0.14 0.82 1
-0.16 0.16 0.84 1
-0.18 0.18 0.86 1
-0.2 0.2 0.88 1
-0.22 0.22 0.9 1
-0.24 0.24 0.92 1
-0.26 0.26 0.94 1
0.72 -0.72 -0.04 1
0.7 -0.7 -0.02 1
0.68 -0.68 0 1
0.66 -0.66 0.02 1
0.64 -0.64 0.04 1
0.62 -0.62 0.0600000000000001 1
0.6 -0.6 0.0800000000000001 1
0.58 -0.58 0.1 1
0.56 -0.56 0.12 1
0.54 -0.54 0.14 1
0.52 -0.52 0.16 1
0.5 -0.5 0.18 1
0.48 -0.48 0.2 1
0.46 -0.46 0.22 1
0.44 -0.44 0.24 1
0.42 -0.42 0.26 1
0.4 -0.4 0.28 1
0.38 -0.38 0.3 1
0.36 -0.36 0.32 1
0.36 -0.36 0.36 1
0.34 -0.34 0.38 1
0.32 -0.32 0.4 1
0.3 -0.3 0.42 1
0.28 -0.28 0.44 1
0.26 -0.26 0.46 1
0.24 -0.24 0.48 1
0.22 -0.22 0.5 1
0.2 -0.2 0.52 1
0.18 -0.18 0.54 1
0.16 -0.16 0.56 1
0.14 -0.14 0.58 1
0.12 -0.12 0.6 1
0.1 -0.1 0.62 1
0.08 -0.08 0.64 1
0.06 -0.06 0.66 1
0.04 -0.04 0.68 1
0.02 -0.02 0.7 1
0 0 0.72 1
-0.02 0.02 0.74 1
-0.04 0.04 0.76 1
-0.06 0.06 0.78 1
-0.08 0.08 0.8 1
-0.1 0.1 0.82 1
-0.12 0.12 0.84 1
-0.14 0.14 0.86 1
-0.16 0.16 0.88 1
-0.18 0.18 0.9 1
-0.2 0.2 0.92 1
-0.22 0.22 0.94 1
-0.24 0.24 0.96 1
-0.26 0.26 0.98 1
0.72 -0.72 -1.11022302462516e-16 1
0.7 -0.7 0.02 1
0.68 -0.68 0.04 1
0.66 -0.66 0.0600000000000001 1
0.64 -0.64 0.0800000000000001 1
0.62 -0.62 0.1 1
0.6 -0.6 0.12 1
0.58 -0.58 0.14 1
0.56 -0.56 0.16 1
0.54 -0.54 0.18 1
0.52 -0.52 0.2 1
0.5 -0.5 0.22 1
0.48 -0.48 0.24 1
0.46 -0.46 0.26 1
0.44 -0.44 0.28 1
0.42 -0.42 0.3 1
0.4 -0.4 0.32 1
0.38 -0.38 0.34 1
0.38 -0.38 0.38 1
0.36 -0.36 0.4 1
0.34 -0.34 0.42 1
0.32 -0.32 0.44 1
0.3 -0.3 0.46 1
0.28 -0.28 0.48 1
0.26 -0.26 0.5 1
0.24 -0.24 0.52 1
0.22 -0.22 0.54 1
0.2 -0.2 0.56 1
0.18 -0.18 0.58 1
0.16 -0.16 0.6 1
0.14 -0.14 0.62 1
0.12 -0.12 0.64 1
0.1 -0.1 0.66 1
0.08 -0.08 0.68 1
0.06 -0.06 0.7 1
0.04 -0.04 0.72 1
0.02 -0.02 0.74 1
0 0 0.76 1
-0.02 0.02 0.78 1
-0.04 0.04 0.8 1
-0.06 0.06 0.82 1
-0.08 0.08 0.84 1
-0.1 0.1 0.86 1
-0.12 0.12 0.88 1
-0.14 0.14 0.9 1
-0.16 0.16 0.92 1
-0.18 0.18 0.94 1
-0.2 0.2 0.96 1
-0.22 0.22 0.98 1
-0.24 0.24 1 1
-0.26 0.26 -0.98 1
0.72 -0.72 0.04 1
0.7 -0.7 0.0600000000000001 1
0.68 -0.68 0.0800000000000001 1
0.66 -0.66 0.1 1
0.64 -0.64 0.12 1
0.62 -0.62 0.14 1
0.6 -0.6 0.16 1
0.58 -0.58 0.18 1
0.56 -0.56 0.2 1
0.54 -0.54 0.22 1
0.52 -0.52 0.24 1
0.5 -0.5 0.26 1
0.48 -0.48 0.28 1
0.46 -0.46 0.3 1
0.44 -0.44 0.32 1
0.42 -0.42 0.34 1
0.4 -0.4 0.36 1
0.4 -0.4 0.4 1
0.38 -0.38 0.42 1
0.36 -0.36 0.44 1
0.34 -0.34 0.46 1
0.32 -0.32 0.48 1
0.3 -0.3 0.5 1
0.28 -0.28 0.52 1
0.26 -0.26 0.54 1
0.24 -0.24 0.56 1
0.22 -0.22 0.58 1
0.2 -0.2 0.6 1
0.18 -0.18 0.62 1
0.16 -0.16 0.64 1
0.14 -0.14 0.66 1
0.12 -0.12 0.68 1
0.1 -0.1 0.7 1
0.08 -0.08 0.72 1
0.06 -0.06 0.74 1
0.04 -0.04 0.76 1
0.02 -0.02 0.78 1
0 0 0.8 1
-0.02 0.02 0.82 1
-0.04 0.04 0.84 1
-0.06 0.06 0.86 1
-0.08 0.08 0.88 1
-0.1 0.1 0.9 1
-0.12 0.12 0.92 1
-0.14 0.14 0.94 1
-0.16 0.16 0.96 1
-0.18 0.18 0.98 1
-0.2 0.2 1 1
-0.22 0.22 -0.98 1
-0.24 0.24 -0.96 1
-0.26 0.26 -0.94 1
-0.28 0.28 -0.92 1
-0.3 0.3 -0.9 1
0.68 -0.68 0.12 1
0.66 -0.66 0.14 1
0.64 -0.64 0.16 1
0.62 -0.62 0.18 1
0.6 -0.6 0.2 1
0.58 -0.58 0.22 1
0.56 -0.56 0.24 1
0.54 -0.54 0.26 1
0.52 -0.52 0.28 1
0.5 -0.5 0.3 1
0.48 -0.48 0.32 1
0.46 -0.46 0.34 1
0.44 -0.44 0.36 1
0.42 -0.42 0.38 1
0.42 -0.42 0.42 1
0.4 -0.4 0.44 1
0.38 -0.38 0.46 1
0.36 -0.36 0.48 1
0.34 -0.34 0.5 1
0.32 -0.32 0.52 1
0.3 -0.3 0.54 1
0.28 -0.28 0.56 1
0.26 -0.26 0.58 1
0.24 -0.24 0.6 1
0.22 -0.22 0.62 1
0.2 -0.2 0.64 1
0.18 -0.18 0.66 1
0.16 -0.16 0.68 1
0.14 -0.14 0.7 1
0.12 -0.12 0.72 1
0.1 -0.1 0.74 1
0.08 -0.08 0.76 1
0.06 -0.06 0.78 1
0.04 -0.04 0.8 1
0.02 -0.02 0.82 1
0 0 0.84 1
-0.02 0.02 0.86 1
-0.04 0.04 0.88 1
-0.06 0.06 0.9 1
-0.08 0.08 0.92 1
-0.1 0.1 0.94 1
-0.12 0.12 0.96 1
-0.14 0.14 0.98 1
-0.16 0.16 1 1
-0.18 0.18 -0.98 1
-0.2 0.2 -0.96 1
-0.22 0.22 -0.94 1
-0.24 0.24 -0.92 1
-0.26 0.26 -0.9 1
-0.28 0.28 -0.88 1
-0.3 0.3 -0.86 1
-0.32 0.32 -0.84 1
0.66 -0.66 0.18 1
0.64 -0.64 0.2 1
0.62 -0.62 0.22 1
0.6 -0.6 0.24 1
0.58 -0.58 0.26 1
0.56 -0.56 0.28 1
0.54 -0.54 0.3 1
0.52 -0.52 0.32 1
0.5 -0.5 0.34 1
0.48 -0.48 0.36 1
0.46 -0.46 0.38 1
0.44 -0.44 0.4 1
0.44 -0.44 0.44 1
0.42 -0.42 0.46 1
0.4 -0.4 0.48 1
0.38 -0.38 0.5 1
0.36 -0.36 0.52 1
0.34 -0.34 0.54 1
0.32 -0.32 0.56 1
0.3 -0.3 0.58 1
0.28 -0.28 0.6 1
0.26 -0.26 0.62 1
0.24 -0.24 0.64 1
0.22 -0.22 0.66 1
0.2 -0.2 0.68 1
0.18 -0.18 0.7 1
0.16 -0.16 0.72 1
0.14 -0.14 0.74 1
0.12 -0.12 0.76 1
0.1 -0.1 0.78 1
0.08 -0.08 0.8 1
0.06 -0.06 0.82 1
0.04 -0.04 0.84 1
0.02 -0.02 0.86 1
0 0 0.88 1
-0.02 0.02 0.9 1
-0.04 0.04 0.92 1
-0.06 0.06 0.94 1
-0.08 0.08 0.96 1
-0.1 0.1 0.98 1
-0.12 0.12 1 1
-0.14 0.14 -0.98 1
-0.16 0.16 -0.96 1
-0.18 0.18 -0.94 1
-0.2 0.2 -0.92 1
-0.22 0.22 -0.9 1
-0.24 0.24 -0.88 1
-0.26 0.26 -0.86 1
-0.28 0.28 -0.84 1
-0.3 0.3 -0.82 1
-0.32 0.32 -0.8 1
-0.34 0.34 -0.78 1
-0.36 0.36 -0.76 1
-0.38 0.38 -0.74 1
0.6 -0.6 0.28 1
0.58 -0.58 0.3 1
0.56 -0.56 0.32 1
0.54 -0.54 0.34 1
0.52 -0.52 0.36 1
0.5 -0.5 0.38 1
0.48 -0.48 0.4 1
0.46 -0.46 0.42 1
0.46 -0.46 0.46 1
0.44 -0.44 0.48 1
0.42 -0.42 0.5 1
0.4 -0.4 0.52 1
0.38 -0.38 0.54 1
0.36 -0.36 0.56 1
0.34 -0.34 0.58 1
0.32 -0.32 0.6 1
0.3 -0.3 0.62 1
0.28 -0.28 0.64 1
0.26 -0.26 0.66 1
0.24 -0.24 0.68 1
0.22 -0.22 0.7 1
0.2 -0.2 0.72 1
0.18 -0.18 0.74 1
0.16 -0.16 0.76 1
0.14 -0.14 0.78 1
0.12 -0.12 0.8 1
0.1 -0.1 0.82 1
0.08 -0.08 0.84 1
0.06 -0.06 0.86 1
0.04 -0.04 0.88 1
0.02 -0.02 0.9 1
0 0 0.92 1
-0.02 0.02 0.94 1
-0.04 0.04 0.96 1
-0.06 0.06 0.98 1
-0.08 0.08 1 1
-0.1 0.1 -0.98 1
-0.12 0.12 -0.96 1
-0.14 0.14 -0.94 1
-0.16 0.16 -0.92 1
-0.18 0.18 -0.9 1
-0.2 0.2 -0.88 1
-0.22 0.22 -0.86 1
-0.24 0.24 -0.84 1
-0.26 0.26 -0.82 1
-0.28 0.28 -0.8 1
-0.3 0.3 -0.78 1
-0.32 0.32 -0.76 1
-0.34 0.34 -0.74 1
-0.36 0.36 -0.72 1
-0.38 0.38 -0.7 1
-0.4 0.4 -0.68 1
-0.42 0.42 -0.66 1
0.56 -0.56 0.36 1
0.54 -0.54 0.38 1
0.52 -0.52 0.4 1
0.5 -0.5 0.42 1
0.48 -0.48 0.44 1
0.48 -0.48 0.48 1
0.46 -0.46 0.5 1
0.44 -0.44 0.52 1
0.42 -0.42 0.54 1
0.4 -0.4 0.56 1
0.38 -0.38 0.58 1
0.36 -0.36 0.6 1
0.34 -0.34 0.62 1
0.32 -0.32 0.64 1
0.3 -0.3 0.66 1
0.28 -0.28 0.68 1
0.26 -0.26 0.7 1
0.24 -0.24 0.72 1
0.22 -0.22 0.74 1
0.2 -0.2 0.76 1
0.18 -0.18 0.78 1
0.16 -0.16 0.8 1
0.14 -0.14 0.82 1
0.12 -0.12 0.84 1
0.1 -0.1 0.86 1
0.08 -0.08 0.88 1
0.06 -0.06 0.9 1
0.04 -0.04 0.92 1
0.02 -0.02 0.94 1
0 0 0.96 1
-0.02 0.02 0.98 1
-0.04 0.04 1 1
-0.0600000000000001 0.0600000000000001 -0.98 1
-0.0800000000000001 0.0800000000000001 -0.96 1
-0.1 0.1 -0.94 1
-0.12 0.12 -0.92 1
-0.14 0.14 -0.9 1
-0.16 0.16 -0.88 1
-0.18 0.18 -0.86 1
-0.2 0.2 -0.84 1
-0.22 0.22 -0.82 1
-0.24 0.24 -0.8 1
-0.26 0.26 -0.78 1
-0.28 0.28 -0.76 1
-0.3 0.3 -0.74 1
-0.32 0.32 -0.72 1
-0.34 0.34 -0.7 1
-0.36 0.36 -0.68 1
-0.38 0.38 -0.66 1
-0.4 0.4 -0.64 1
-0.42 0.42 -0.62 1
-0.44 0.44 -0.6 1
-0.46 0.46 -0.58 1
0.52 -0.52 0.44 1
0.5 -0.5 0.46 1
0.5 -0.5 0.5 1
0.48 -0.48 0.52 1
0.46 -0.46 0.54 1
0.44 -0.44 0.56 1
0.42 -0.42 0.58 1
0.4 -0.4 0.6 1
0.38 -0.38 0.62 1
0.36 -0.36 0.64 1
0.34 -0.34 0.66 1
0.32 -0.32 0.68 1
0.3 -0.3 0.7 1
0.28 -0.28 0.72 1
0.26 -0.26 0.74 1
0.24 -0.24 0.76 1
0.22 -0.22 0.78 1
0.2 -0.2 0.8 1
0.18 -0.18 0.82 1
0.16 -0.16 0.84 1
0.14 -0.14 0.86 1
0.12 -0.12 0.88 1
0.1 -0.1 0.9 1
0.08 -0.08 0.92 1
0.06 -0.06 0.94 1
0.04 -0.04 0.96 1
0.02 -0.02 0.98 1
0 0 1 1
-0.02 0.02 -0.98 1
-0.04 0.04 -0.96 1
-0.0600000000000001 0.0600000000000001 -0.94 1
-0.08 0.08 -0.92 1
-0.1 0.1 -0.9 1
-0.12 0.12 -0.88 1
-0.14 0.14 -0.86 1
-0.16 0.16 -0.84 1
-0.18 0.18 -0.82 1
-0.2 0.2 -0.8 1
-0.22 0.22 -0.78 1
-0.24 0.24 -0.76 1
-0.26 0.26 -0.74 1
-0.28 0.28 -0.72 1
-0.3 0.3 -0.7 1
-0.32 0.32 -0.68 1
-0.34 0.34 -0.66 1
-0.36 0.36 -0.64 1
-0.38 0.38 -0.62 1
-0.4 0.4 -0.6 1
-0.42 0.42 -0.58 1
-0.44 0.44 -0.56 1
-0.46 0.46 -0.54 1
-0.48 0.48 -0.52 1
-0.48 0.48 -0.48 1
-0.5 0.5 -0.46 1
-0.52 0.52 -0.44 1
0.46 -0.46 0.58 1
0.44 -0.44 0.6 1
0.42 -0.42 0.62 1
0.4 -0.4 0.64 1
0.38 -0.38 0.66 1
0.36 -0.36 0.68 1
0.34 -0.34 0.7 1
0.32 -0.32 0.72 1
0.3 -0.3 0.74 1
0.28 -0.28 0.76 1
0.26 -0.26 0.78 1
0.24 -0.24 0.8 1
0.22 -0.22 0.82 1
0.2 -0.2 0.84 1
0.18 -0.18 0.86 1
0.16 -0.16 0.88 1
0.14 -0.14 0.9 1
0.12 -0.12 0.92 1
0.1 -0.1 0.94 1
0.08 -0.08 0.96 1
0.06 -0.06 0.98 1
0.04 -0.04 1 1
0.02 -0.02 -0.98 1
0 0 -0.96 1
-0.02 0.02 -0.94 1
-0.04 0.04 -0.92 1
-0.0599999999999999 0.0599999999999999 -0.9 1
-0.08 0.08 -0.88 1
-0.1 0.1 -0.86 1
-0.12 0.12 -0.84 1
-0.14 0.14 -0.82 1
-0.16 0.16 -0.8 1
-0.18 0.18 -0.78 1
-0.2 0.2 -0.76 1
-0.22 0.22 -0.74 1
-0.24 0.24 -0.72 1
-0.26 0.26 -0.7 1
-0.28 0.28 -0.68 1
-0.3 0.3 -0.66 1
-0.32 0.32 -0.64 1
-0.34 0.34 -0.62 1
-0.36 0.36 -0.6 1
-0.38 0.38 -0.58 1
-0.4 0.4 -0.56 1
-0.42 0.42 -0.54 1
-0.44 0.44 -0.52 1
-0.46 0.46 -0.5 1
-0.46 0.46 -0.46 1
-0.48 0.48 -0.44 1
-0.5 0.5 -0.42 1
-0.52 0.52 -0.4 1
-0.54 0.54 -0.38 1
-0.56 0.56 -0.36 1
-0.58 0.58 -0.34 1
0.4 -0.4 0.68 1
0.38 -0.38 0.7 1
0.36 -0.36 0.72 1
0.34 -0.34 0.74 1
0.32 -0.32 0.76 1
0.3 -0.3 0.78 1
0.28 -0.28 0.8 1
0.26 -0.26 0.82 1
0.24 -0.24 0.84 1
0.22 -0.22 0.86 1
0.2 -0.2 0.88 1
0.18 -0.18 0.9 1
0.16 -0.16 0.92 1
0.14 -0.14 0.94 1
0.12 -0.12 0.96 1
0.1 -0.1 0.98 1
0.08 -0.08 1 1
0.0600000000000001 -0.0600000000000001 -0.98 1
0.04 -0.04 -0.96 1
0.02 -0.02 -0.94 1
0 0 -0.92 1
-0.02 0.02 -0.9 1
-0.0399999999999999 0.0399999999999999 -0.88 1
-0.0599999999999999 0.0599999999999999 -0.86 1
-0.08 0.08 -0.84 1
-0.0999999999999999 0.0999999999999999 -0.82 1
-0.12 0.12 -0.8 1
-0.14 0.14 -0.78 1
-0.16 0.16 -0.76 1
-0.18 0.18 -0.74 1
-0.2 0.2 -0.72 1
-0.22 0.22 -0.7 1
-0.24 0.24 -0.68 1
-0.26 0.26 -0.66 1
-0.28 0.28 -0.64 1
-0.3 0.3 -0.62 1
-0.32 0.32 -0.6 1
-0.34 0.34 -0.58 1
-0.36 0.36 -0.56 1
-0.38 0.38 -0.54 1
-0.4 0.4 -0.52 1
-0.42 0.42 -0.5 1
-0.44 0.44 -0.48 1
-0.44 0.44 -0.44 1
-0.46 0.46 -0.42 1
-0.48 0.48 -0.4 1
-0.5 0.5 -0.38 1
-0.52 0.52 -0.36 1
-0.54 0.54 -0.34 1
-0.56 0.56 -0.32 1
-0.58 0.58 -0.3 1
-0.6 0.6 -0.28 1
-0.62 0.62 -0.26 1
0.36 -0.36 0.76 1
0.34 -0.34 0.78 1
0.32 -0.32 0.8 1
0.3 -0.3 0.82 1
0.28 -0.28 0.84 1
0.26 -0.26 0.86 1
0.24 -0.24 0.88 1
0.22 -0.22 0.9 1
0.2 -0.2 0.92 1
0.18 -0.18 0.94 1
0.16 -0.16 0.96 1
0.14 -0.14 0.98 1
0.12 -0.12 1 1
0.1 -0.1 -0.98 1
0.0800000000000001 -0.0800000000000001 -0.96 1
0.0600000000000001 -0.0600000000000001 -0.94 1
0.04 -0.04 -0.92 1
0.02 -0.02 -0.9 1
0 0 -0.88 1
-0.0199999999999999 0.0199999999999999 -0.86 1
-0.0399999999999999 0.0399999999999999 -0.84 1
-0.0599999999999999 0.0599999999999999 -0.82 1
-0.0799999999999998 0.0799999999999998 -0.8 1
-0.0999999999999999 0.0999999999999999 -0.78 1
-0.12 0.12 -0.76 1
-0.14 0.14 -0.74 1
-0.16 0.16 -0.72 1
-0.18 0.18 -0.7 1
-0.2 0.2 -0.68 1
-0.22 0.22 -0.66 1
-0.24 0.24 -0.64 1
-0.26 0.26 -0.62 1
-0.28 0.28 -0.6 1
-0.3 0.3 -0.58 1
-0.32 0.32 -0.56 1
-0.34 0.34 -0.54 1
-0.36 0.36 -0.52 1
-0.38 0.38 -0.5 1
-0.4 0.4 -0.48 1
-0.42 0.42 -0.46 1
-0.42 0.42 -0.42 1
-0.44 0.44 -0.4 1
-0.46 0.46 -0.38 1
-0.48 0.48 -0.36 1
-0.5 0.5 -0.34 1
-0.52 0.52 -0.32 1
-0.54 0.54 -0.3 1
-0.56 0.56 -0.28 1
-0.58 0.58 -0.26 1
-0.6 0.6 -0.24 1
-0.62 0.62 -0.22 1
-0.64 0.64 -0.2 1
0.34 -0.34 0.82 1
0.32 -0.32 0.84 1
0.3 -0.3 0.86 1
0.28 -0.28 0.88 1
0.26 -0.26 0.9 1
0.24 -0.24 0.92 1
0.22 -0.22 0.94 1
0.2 -0.2 0.96 1
0.18 -0.18 0.98 1
0.16 -0.16 1 1
0.14 -0.14 -0.98 1
0.12 -0.12 -0.96 1
0.1 -0.1 -0.94 1
0.0800000000000001 -0.0800000000000001 -0.92 1
0.0600000000000001 -0.0600000000000001 -0.9 1
0.04 -0.04 -0.88 1
0.02 -0.02 -0.86 1
0 0 -0.84 1
-0.02 0.02 -0.82 1
-0.04 0.04 -0.8 1
-0.0599999999999999 0.0599999999999999 -0.78 1
-0.08 0.08 -0.76 1
-0.1 0.1 -0.74 1
-0.12 0.12 -0.72 1
-0.14 0.14 -0.7 1
-0.16 0.16 -0.68 1
-0.18 0.18 -0.66 1
-0.2 0.2 -0.64 1
-0.22 0.22 -0.62 1
-0.24 0.24 -0.6 1
-0.26 0.26 -0.58 1
-0.28 0.28 -0.56 1
-0.3 0.3 -0.54 1
-0.32 0.32 -0.52 1
-0.34 0.34 -0.5 1
-0.36 0.36 -0.48 1
-0.38 0.38 -0.46 1
-0.4 0.4 -0.44 1
-0.4 0.4 -0.4 1
-0.42 0.42 -0.38 1
-0.44 0.44 -0.36 1
-0.46 0.46 -0.34 1
-0.48 0.48 -0.32 1
-0.5 0.5 -0.3 1
-0.52 0.52 -0.28 1
-0.54 0.54 -0.26 1
-0.56 0.56 -0.24 1
-0.58 0.58 -0.22 1
-0.6 0.6 -0.2 1
-0.62 0.62 -0.18 1
-0.64 0.64 -0.16 1
-0.66 0.66 -0.14 1
-0.68 0.68 -0.12 1
0.3 -0.3 0.9 1
0.28 -0.28 0.92 1
0.26 -0.26 0.94 1
0.24 -0.24 0.96 1
0.22 -0.22 0.98 1
0.2 -0.2 1 1
0.18 -0.18 -0.98 1
0.16 -0.16 -0.96 1
0.14 -0.14 -0.94 1
0.12 -0.12 -0.92 1
0.1 -0.1 -0.9 1