42875
42875
0 0 0 1
-0.0285714285714286 0.0285714285714286 0.0285714285714286 1
-0.0571428571428571 0.0571428571428571 0.0571428571428571 1
-0.0857142857142857 0.0857142857142857 0.0857142857142857 1
-0.114285714285714 0.114285714285714 0.114285714285714 1
-0.142857142857143 0.142857142857143 0.142857142857143 1
-0.171428571428571 0.171428571428571 0.171428571428571 1
-0.2 0.2 0.2 1
-0.228571428571429 0.228571428571429 0.228571428571429 1
-0.257142857142857 0.257142857142857 0.257142857142857 1
-0.285714285714286 0.285714285714286 0.285714285714286 1
-0.314285714285714 0.314285714285714 0.314285714285714 1
-0.342857142857143 0.342857142857143 0.342857142857143 1
-0.371428571428571 0.371428571428571 0.371428571428571 1
-0.4 0.4 0.4 1
-0.428571428571429 0.428571428571429 0.428571428571429 1
-0.457142857142857 0.457142857142857 0.457142857142857 1
-0.485714285714286 0.485714285714286 0.485714285714286 1
0.485714285714286 -0.485714285714286 -0.485714285714286 1
0.457142857142857 -0.457142857142857 -0.457142857142857 1
0.428571428571429 -0.428571428571429 -0.428571428571429 1
0.4 -0.4 -0.4 1
0.371428571428571 -0.371428571428571 -0.371428571428571 1
0.342857142857143 -0.342857142857143 -0.342857142857143 1
0.314285714285714 -0.314285714285714 -0.314285714285714 1
0.285714285714286 -0.285714285714286 -0.285714285714286 1
0.257142857142857 -0.257142857142857 -0.257142857142857 1
0.228571428571429 -0.228571428571429 -0.228571428571429 1
0.2 -0.2 -0.2 1
0.171428571428571 -0.171428571428571 -0.171428571428571 1
0.142857142857143 -0.142857142857143 -0.142857142857143 1
0.114285714285714 -0.114285714285714 -0.114285714285714 1
0.0857142857142857 -0.0857142857142857 -0.0857142857142857 1
0.0571428571428572 -0.0571428571428572 -0.0571428571428572 1
0.0285714285714286 -0.0285714285714286 -0.0285714285714286 1
0.0285714285714286 -0.0285714285714286 0.0285714285714286 1
0 0 0.0571428571428571 1
-0.0285714285714286 0.0285714285714286 0.0857142857142857 1
-0.0571428571428571 0.0571428571428571 0.114285714285714 1
-0.0857142857142857 0.0857142857142857 0.142857142857143 1
-0.114285714285714 0.114285714285714 0.171428571428571 1
-0.142857142857143 0.142857142857143 0.2 1
-0.171428571428571 0.171428571428571 0.228571428571429 1
-0.2 0.2 0.257142857142857 1
-0.228571428571429 0.228571428571429 0.285714285714286 1
-0.257142857142857 0.257142857142857 0.314285714285714 1
-0.285714285714286 0.285714285714286 0.342857142857143 1
-0.314285714285714 0.314285714285714 0.371428571428571 1
-0.342857142857143 0.342857142857143 0.4 1
-0.371428571428571 0.371428571428571 0.428571428571429 1
-0.4 0.4 0.457142857142857 1
-0.428571428571429 0.428571428571429 0.485714285714286 1
-0.457142857142857 0.457142857142857 0.514285714285714 1
0.514285714285714 -0.514285714285714 -0.457142857142857 1
0.485714285714286 -0.485714285714286 -0.428571428571428 1
0.457142857142857 -0.457142857142857 -0.4 1
0.428571428571429 -0.428571428571429 -0.371428571428571 1
0.4 -0.4 -0.342857142857143 1
0.371428571428571 -0.371428571428571 -0.314285714285714 1
0.342857142857143 -0.342857142857143 -0.285714285714286 1
0.314285714285714 -0.314285714285714 -0.257142857142857 1
0.285714285714286 -0.285714285714286 -0.228571428571429 1
0.257142857142857 -0.257142857142857 -0.2 1
0.228571428571429 -0.228571428571429 -0.171428571428571 1
0.2 -0.2 -0.142857142857143 1
0.171428571428571 -0.171428571428571 -0.114285714285714 1
0.142857142857143 -0.142857142857143 -0.0857142857142857 1
0.114285714285714 -0.114285714285714 -0.0571428571428572 1
0.0857142857142857 -0.0857142857142857 -0.0285714285714286 1
0.0571428571428572 -0.0571428571428572 0 1
0.0571428571428571 -0.0571428571428571 0.0571428571428571 1
0.0285714285714286 -0.0285714285714286 0.0857142857142857 1
0 0 0.114285714285714 1
-0.0285714285714286 0.0285714285714286 0.142857142857143 1
-0.0571428571428571 0.0571428571428571 0.171428571428571 1
-0.0857142857142857 0.0857142857142857 0.2 1
-0.114285714285714 0.114285714285714 0.228571428571429 1
-0.142857142857143 0.142857142857143 0.257142857142857 1
-0.171428571428571 0.171428571428571 0.285714285714286 1
-0.2 0.2 0.314285714285714 1
-0.228571428571429 0.228571428571429 0.342857142857143 1
-0.257142857142857 0.257142857142857 0.371428571428571 1
-0.285714285714286 0.285714285714286 0.4 1
-0.314285714285714 0.314285714285714 0.428571428571429 1
-0.342857142857143 0.342857142857143 0.457142857142857 1
-0.371428571428571 0.371428571428571 0.485714285714286 1
-0.4 0.4 0.514285714285714 1
-0.428571428571429 0.428571428571429 0.542857142857143 1
-0.457142857142857 0.457142857142857 0.571428571428571 1
0.514285714285714 -0.514285714285714 -0.4 1
0.485714285714286 -0.485714285714286 -0.371428571428571 1
0.457142857142857 -0.457142857142857 -0.342857142857143 1
0.428571428571429 -0.428571428571429 -0.314285714285714 1
0.4 -0.4 -0.285714285714286 1
0.371428571428571 -0.371428571428571 -0.257142857142857 1
0.342857142857143 -0.342857142857143 -0.228571428571429 1
0.314285714285714 -0.314285714285714 -0.2 1
0.285714285714286 -0.285714285714286 -0.171428571428571 1
0.257142857142857 -0.257142857142857 -0.142857142857143 1
0.228571428571429 -0.228571428571429 -0.114285714285714 1
0.2 -0.2 -0.0857142857142857 1
0.171428571428571 -0.171428571428571 -0.0571428571428572 1
0.142857142857143 -0.142857142857143 -0.0285714285714286 1
0.114285714285714 -0.114285714285714 0 1
0.0857142857142857 -0.0857142857142857 0.0285714285714285 1
0.0857142857142857 -0.0857142857142857 0.0857142857142857 1
0.0571428571428571 -0.0571428571428571 0.114285714285714 1
0.0285714285714286 -0.0285714285714286 0.142857142857143 1
0 0 0.171428571428571 1
-0.0285714285714286 0.0285714285714286 0.2 1
-0.0571428571428571 0.0571428571428571 0.228571428571429 1
-0.0857142857142857 0.0857142857142857 0.257142857142857 1
-0.114285714285714 0.114285714285714 0.285714285714286 1
-0.142857142857143 0.142857142857143 0.314285714285714 1
-0.171428571428571 0.171428571428571 0.342857142857143 1
-0.2 0.2 0.371428571428571 1
-0.228571428571429 0.228571428571429 0.4 1
-0.257142857142857 0.257142857142857 0.428571428571429 1
-0.285714285714286 0.285714285714286 0.457142857142857 1
-0.314285714285714 0.314285714285714 0.485714285714286 1
-0.342857142857143 0.342857142857143 0.514285714285714 1
-0.371428571428571 0.371428571428571 0.542857142857143 1
-0.4 0.4 0.571428571428571 1
-0.428571428571428 0.428571428571428 0.6 1
0.542857142857143 -0.542857142857143 -0.371428571428571 1
0.514285714285714 -0.514285714285714 -0.342857142857143 1
0.485714285714286 -0.485714285714286 -0.314285714285714 1
0.457142857142857 -0.457142857142857 -0.285714285714286 1
0.428571428571429 -0.428571428571429 -0.257142857142857 1
0.4 -0.4 -0.228571428571429 1
0.371428571428571 -0.371428571428571 -0.2 1
0.342857142857143 -0.342857142857143 -0.171428571428571 1
0.314285714285714 -0.314285714285714 -0.142857142857143 1
0.285714285714286 -0.285714285714286 -0.114285714285714 1
0.257142857142857 -0.257142857142857 -0.0857142857142857 1
0.228571428571429 -0.228571428571429 -0.0571428571428572 1
0.2 -0.2 -0.0285714285714286 1
0.171428571428571 -0.171428571428571 0 1
0.142857142857143 -0.142857142857143 0.0285714285714285 1
0.114285714285714 -0.114285714285714 0.0571428571428572 1
0.114285714285714 -0.114285714285714 0.114285714285714 1
0.0857142857142857 -0.0857142857142857 0.142857142857143 1
0.0571428571428571 -0.0571428571428571 0.171428571428571 1
0.0285714285714286 -0.0285714285714286 0.2 1
0 0 0.228571428571429 1
-0.0285714285714286 0.0285714285714286 0.257142857142857 1
-0.0571428571428571 0.0571428571428571 0.285714285714286 1
-0.0857142857142857 0.0857142857142857 0.314285714285714 1
-0.114285714285714 0.114285714285714 0.342857142857143 1
-0.142857142857143 0.142857142857143 0.371428571428571 1
-0.171428571428571 0.171428571428571 0.4 1
-0.2 0.2 0.428571428571429 1
-0.228571428571429 0.228571428571429 0.457142857142857 1
-0.257142857142857 0.257142857142857 0.485714285714286 1
-0.285714285714286 0.285714285714286 0.514285714285714 1
-0.314285714285714 0.314285714285714 0.542857142857143 1
-0.342857142857143 0.342857142857143 0.571428571428571 1
-0.371428571428571 0.371428571428571 0.6 1
-0.4 0.4 0.628571428571429 1
0.571428571428571 -0.571428571428571 -0.342857142857143 1
0.542857142857143 -0.542857142857143 -0.314285714285714 1
0.514285714285714 -0.514285714285714 -0.285714285714286 1
0.485714285714286 -0.485714285714286 -0.257142857142857 1
0.457142857142857 -0.457142857142857 -0.228571428571429 1
0.428571428571429 -0.428571428571429 -0.2 1
0.4 -0.4 -0.171428571428571 1
0.371428571428571 -0.371428571428571 -0.142857142857143 1
0.342857142857143 -0.342857142857143 -0.114285714285714 1
0.314285714285714 -0.314285714285714 -0.0857142857142856 1
0.285714285714286 -0.285714285714286 -0.0571428571428572 1
0.257142857142857 -0.257142857142857 -0.0285714285714286 1
0.228571428571429 -0.228571428571429 0 1
0.2 -0.2 0.0285714285714285 1
0.171428571428571 -0.171428571428571 0.0571428571428572 1
0.142857142857143 -0.142857142857143 0.0857142857142856 1
0.142857142857143 -0.142857142857143 0.142857142857143 1
0.114285714285714 -0.114285714285714 0.171428571428571 1
0.0857142857142857 -0.0857142857142857 0.2 1
0.0571428571428571 -0.0571428571428571 0.228571428571429 1
0.0285714285714286 -0.0285714285714286 0.257142857142857 1
0 0 0.285714285714286 1
-0.0285714285714286 0.0285714285714286 0.314285714285714 1
-0.0571428571428571 0.0571428571428571 0.342857142857143 1
-0.0857142857142857 0.0857142857142857 0.371428571428571 1
-0.114285714285714 0.114285714285714 0.4 1
-0.142857142857143 0.142857142857143 0.428571428571429 1
-0.171428571428571 0.171428571428571 0.457142857142857 1
-0.2 0.2 0.485714285714286 1
-0.228571428571429 0.228571428571429 0.514285714285714 1
-0.257142857142857 0.257142857142857 0.542857142857143 1
-0.285714285714286 0.285714285714286 0.571428571428571 1
-0.314285714285714 0.314285714285714 0.6 1
-0.342857142857143 0.342857142857143 0.628571428571429 1
-0.371428571428571 0.371428571428571 0.657142857142857 1
-0.4 0.4 0.685714285714286 1
0.571428571428571 -0.571428571428571 -0.285714285714286 1
0.542857142857143 -0.542857142857143 -0.257142857142857 1
0.514285714285714 -0.514285714285714 -0.228571428571429 1
0.485714285714286 -0.485714285714286 -0.2 1
0.457142857142857 -0.457142857142857 -0.171428571428571 1
0.428571428571429 -0.428571428571429 -0.142857142857143 1
0.4 -0.4 -0.114285714285714 1
0.371428571428571 -0.371428571428571 -0.0857142857142856 1
0.342857142857143 -0.342857142857143 -0.0571428571428572 1
0.314285714285714 -0.314285714285714 -0.0285714285714287 1
0.285714285714286 -0.285714285714286 0 1
0.257142857142857 -0.257142857142857 0.0285714285714285 1
0.228571428571429 -0.228571428571429 0.0571428571428572 1
0.2 -0.2 0.0857142857142856 1
0.171428571428571 -0.171428571428571 0.114285714285714 1
0.171428571428571 -0.171428571428571 0.171428571428571 1
0.142857142857143 -0.142857142857143 0.2 1
0.114285714285714 -0.114285714285714 0.228571428571429 1
0.0857142857142857 -0.0857142857142857 0.257142857142857 1
0.0571428571428571 -0.0571428571428571 0.285714285714286 1
0.0285714285714286 -0.0285714285714286 0.314285714285714 1
0 0 0.342857142857143 1
-0.0285714285714286 0.0285714285714286 0.371428571428571 1
-0.0571428571428571 0.0571428571428571 0.4 1
-0.0857142857142857 0.0857142857142857 0.428571428571429 1
-0.114285714285714 0.114285714285714 0.457142857142857 1
-0.142857142857143 0.142857142857143 0.485714285714286 1
-0.171428571428571 0.171428571428571 0.514285714285714 1
-0.2 0.2 0.542857142857143 1
-0.228571428571429 0.228571428571429 0.571428571428571 1
-0.257142857142857 0.257142857142857 0.6 1
-0.285714285714286 0.285714285714286 0.628571428571429 1
-0.314285714285714 0.314285714285714 0.657142857142857 1
-0.342857142857143 0.342857142857143 0.685714285714286 1
-0.371428571428571 0.371428571428571 0.714285714285714 1
0.6 -0.6 -0.257142857142857 1
0.571428571428571 -0.571428571428571 -0.228571428571429 1
0.542857142857143 -0.542857142857143 -0.2 1
0.514285714285714 -0.514285714285714 -0.171428571428571 1
0.485714285714286 -0.485714285714286 -0.142857142857143 1
0.457142857142857 -0.457142857142857 -0.114285714285714 1
0.428571428571429 -0.428571428571429 -0.0857142857142856 1
0.4 -0.4 -0.0571428571428572 1
0.371428571428571 -0.371428571428571 -0.0285714285714285 1
0.342857142857143 -0.342857142857143 0 1
0.314285714285714 -0.314285714285714 0.0285714285714285 1
0.285714285714286 -0.285714285714286 0.0571428571428572 1
0.257142857142857 -0.257142857142857 0.0857142857142856 1
0.228571428571429 -0.228571428571429 0.114285714285714 1
0.2 -0.2 0.142857142857143 1
0.2 -0.2 0.2 1
0.171428571428571 -0.171428571428571 0.228571428571429 1
0.142857142857143 -0.142857142857143 0.257142857142857 1
0.114285714285714 -0.114285714285714 0.285714285714286 1
0.0857142857142857 -0.0857142857142857 0.314285714285714 1
0.0571428571428571 -0.0571428571428571 0.342857142857143 1
0.0285714285714286 -0.0285714285714286 0.371428571428571 1
0 0 0.4 1
-0.0285714285714286 0.0285714285714286 0.428571428571429 1
-0.0571428571428571 0.0571428571428571 0.457142857142857 1
-0.0857142857142857 0.0857142857142857 0.485714285714286 1
-0.114285714285714 0.114285714285714 0.514285714285714 1
-0.142857142857143 0.142857142857143 0.542857142857143 1
-0.171428571428571 0.171428571428571 0.571428571428571 1
-0.2 0.2 0.6 1
-0.228571428571429 0.228571428571429 0.628571428571429 1
-0.257142857142857 0.257142857142857 0.657142857142857 1
-0.285714285714286 0.285714285714286 0.685714285714286 1
-0.314285714285714 0.314285714285714 0.714285714285714 1
-0.342857142857143 0.342857142857143 0.742857142857143 1
0.628571428571429 -0.628571428571429 -0.228571428571429 1
0.6 -0.6 -0.2 1
0.571428571428571 -0.571428571428571 -0.171428571428571 1
0.542857142857143 -0.542857142857143 -0.142857142857143 1
0.514285714285714 -0.514285714285714 -0.114285714285714 1
0.485714285714286 -0.485714285714286 -0.0857142857142857 1
0.457142857142857 -0.457142857142857 -0.0571428571428572 1
0.428571428571428 -0.428571428571428 -0.0285714285714286 1
0.4 -0.4 0 1
0.371428571428571 -0.371428571428571 0.0285714285714285 1
0.342857142857143 -0.342857142857143 0.0571428571428572 1
0.314285714285714 -0.314285714285714 0.0857142857142856 1
0.285714285714286 -0.285714285714286 0.114285714285714 1
0.257142857142857 -0.257142857142857 0.142857142857143 1
0.228571428571429 -0.228571428571429 0.171428571428571 1
0.228571428571429 -0.228571428571429 0.228571428571429 1
0.2 -0.2 0.257142857142857 1
0.171428571428571 -0.171428571428571 0.285714285714286 1
0.142857142857143 -0.142857142857143 0.314285714285714 1
0.114285714285714 -0.114285714285714 0.342857142857143 1
0.0857142857142857 -0.0857142857142857 0.371428571428571 1
0.0571428571428571 -0.0571428571428571 0.4 1
0.0285714285714286 -0.0285714285714286 0.428571428571429 1
0 0 0.457142857142857 1
-0.0285714285714286 0.0285714285714286 0.485714285714286 1
-0.0571428571428571 0.0571428571428571 0.514285714285714 1
-0.0857142857142857 0.0857142857142857 0.542857142857143 1
-0.114285714285714 0.114285714285714 0.571428571428571 1
-0.142857142857143 0.142857142857143 0.6 1
-0.171428571428571 0.171428571428571 0.628571428571429 1
-0.2 0.2 0.657142857142857 1
-0.228571428571429 0.228571428571429 0.685714285714286 1
-0.257142857142857 0.257142857142857 0.714285714285714 1
-0.285714285714286 0.285714285714286 0.742857142857143 1
-0.314285714285714 0.314285714285714 0.771428571428571 1
-0.342857142857143 0.342857142857143 0.8 1
0.628571428571429 -0.628571428571429 -0.171428571428571 1
0.6 -0.6 -0.142857142857143 1
0.571428571428571 -0.571428571428571 -0.114285714285714 1
0.542857142857143 -0.542857142857143 -0.0857142857142857 1
0.514285714285714 -0.514285714285714 -0.0571428571428572 1
0.485714285714286 -0.485714285714286 -0.0285714285714286 1
0.457142857142857 -0.457142857142857 0 1
0.428571428571428 -0.428571428571428 0.0285714285714287 1
0.4 -0.4 0.0571428571428572 1
0.371428571428571 -0.371428571428571 0.0857142857142856 1
0.342857142857143 -0.342857142857143 0.114285714285714 1
0.314285714285714 -0.314285714285714 0.142857142857143 1
0.285714285714286 -0.285714285714286 0.171428571428571 1
0.257142857142857 -0.257142857142857 0.2 1
0.257142857142857 -0.257142857142857 0.257142857142857 1
0.228571428571429 -0.228571428571429 0.285714285714286 1
0.2 -0.2 0.314285714285714 1
0.171428571428571 -0.171428571428571 0.342857142857143 1
0.142857142857143 -0.142857142857143 0.371428571428571 1
0.114285714285714 -0.114285714285714 0.4 1
0.0857142857142857 -0.0857142857142857 0.428571428571429 1
0.0571428571428571 -0.0571428571428571 0.457142857142857 1
0.0285714285714286 -0.0285714285714286 0.485714285714286 1
0 0 0.514285714285714 1
-0.0285714285714286 0.0285714285714286 0.542857142857143 1
-0.0571428571428572 0.0571428571428572 0.571428571428571 1
-0.0857142857142857 0.0857142857142857 0.6 1
-0.114285714285714 0.114285714285714 0.628571428571429 1
-0.142857142857143 0.142857142857143 0.657142857142857 1
-0.171428571428571 0.171428571428571 0.685714285714286 1
-0.2 0.2 0.714285714285714 1
-0.228571428571429 0.228571428571429 0.742857142857143 1
-0.257142857142857 0.257142857142857 0.771428571428571 1
-0.285714285714286 0.285714285714286 0.8 1
-0.314285714285714 0.314285714285714 0.828571428571429 1
0.657142857142857 -0.657142857142857 -0.142857142857143 1
0.628571428571429 -0.628571428571429 -0.114285714285714 1
0.6 -0.6 -0.0857142857142857 1
0.571428571428571 -0.571428571428571 -0.0571428571428572 1
0.542857142857143 -0.542857142857143 -0.0285714285714286 1
0.514285714285714 -0.514285714285714 0 1
0.485714285714286 -0.485714285714286 0.0285714285714285 1
0.457142857142857 -0.457142857142857 0.0571428571428572 1
0.428571428571429 -0.428571428571429 0.0857142857142856 1
0.4 -0.4 0.114285714285714 1
0.371428571428571 -0.371428571428571 0.142857142857143 1
0.342857142857143 -0.342857142857143 0.171428571428571 1
0.314285714285714 -0.314285714285714 0.2 1
0.285714285714286 -0.285714285714286 0.228571428571429 1
0.285714285714286 -0.285714285714286 0.285714285714286 1
0.257142857142857 -0.257142857142857 0.314285714285714 1
0.228571428571429 -0.228571428571429 0.342857142857143 1
0.2 -0.2 0.371428571428571 1
0.171428571428571 -0.171428571428571 0.4 1
0.142857142857143 -0.142857142857143 0.428571428571429 1
0.114285714285714 -0.114285714285714 0.457142857142857 1
0.0857142857142857 -0.0857142857142857 0.485714285714286 1
0.0571428571428571 -0.0571428571428571 0.514285714285714 1
0.0285714285714286 -0.0285714285714286 0.542857142857143 1
0 0 0.571428571428571 1
-0.0285714285714286 0.0285714285714286 0.6 1
-0.0571428571428572 0.0571428571428572 0.628571428571429 1
-0.0857142857142857 0.0857142857142857 0.657142857142857 1
-0.114285714285714 0.114285714285714 0.685714285714286 1
-0.142857142857143 0.142857142857143 0.714285714285714 1
-0.171428571428571 0.171428571428571 0.742857142857143 1
-0.2 0.2 0.771428571428571 1
-0.228571428571429 0.228571428571429 0.8 1
-0.257142857142857 0.257142857142857 0.828571428571429 1
-0.285714285714286 0.285714285714286 0.857142857142857 1
0.685714285714286 -0.685714285714286 -0.114285714285714 1
0.657142857142857 -0.657142857142857 -0.0857142857142857 1
0.628571428571429 -0.628571428571429 -0.0571428571428572 1
0.6 -0.6 -0.0285714285714286 1
0.571428571428571 -0.571428571428571 0 1
0.542857142857143 -0.542857142857143 0.0285714285714285 1
0.514285714285714 -0.514285714285714 0.0571428571428572 1
0.485714285714286 -0.485714285714286 0.0857142857142859 1
0.457142857142857 -0.457142857142857 0.114285714285714 1
0.428571428571429 -0.428571428571429 0.142857142857143 1
0.4 -0.4 0.171428571428571 1
0.371428571428571 -0.371428571428571 0.2 1
0.342857142857143 -0.342857142857143 0.228571428571429 1
0.314285714285714 -0.314285714285714 0.257142857142857 1
0.314285714285714 -0.314285714285714 0.314285714285714 1
0.285714285714286 -0.285714285714286 0.342857142857143 1
0.257142857142857 -0.257142857142857 0.371428571428571 1
0.228571428571429 -0.228571428571429 0.4 1
0.2 -0.2 0.428571428571429 1
0.171428571428571 -0.171428571428571 0.457142857142857 1
0.142857142857143 -0.142857142857143 0.485714285714286 1
0.114285714285714 -0.114285714285714 0.514285714285714 1
0.0857142857142857 -0.0857142857142857 0.542857142857143 1
0.0571428571428572 -0.0571428571428572 0.571428571428571 1
0.0285714285714286 -0.0285714285714286 0.6 1
0 0 0.628571428571429 1
-0.0285714285714286 0.0285714285714286 0.657142857142857 1
-0.0571428571428572 0.0571428571428572 0.685714285714286 1
-0.0857142857142857 0.0857142857142857 0.714285714285714 1
-0.114285714285714 0.114285714285714 0.742857142857143 1
-0.142857142857143 0.142857142857143 0.771428571428571 1
-0.171428571428571 0.171428571428571 0.8 1
-0.2 0.2 0.828571428571429 1
-0.228571428571429 0.228571428571429 0.857142857142857 1
-0.257142857142857 0.257142857142857 0.885714285714286 1
-0.285714285714286 0.285714285714286 0.914285714285714 1
0.685714285714286 -0.685714285714286 -0.0571428571428572 1
0.657142857142857 -0.657142857142857 -0.0285714285714286 1
0.628571428571429 -0.628571428571429 0 1
0.6 -0.6 0.0285714285714285 1
0.571428571428571 -0.571428571428571 0.0571428571428572 1
0.542857142857143 -0.542857142857143 0.0857142857142859 1
0.514285714285714 -0.514285714285714 0.114285714285714 1
0.485714285714286 -0.485714285714286 0.142857142857143 1
0.457142857142857 -0.457142857142857 0.171428571428571 1
0.428571428571429 -0.428571428571429 0.2 1
0.4 -0.4 0.228571428571429 1
0.371428571428571 -0.371428571428571 0.257142857142857 1
0.342857142857143 -0.342857142857143 0.285714285714286 1
0.342857142857143 -0.342857142857143 0.342857142857143 1
0.314285714285714 -0.314285714285714 0.371428571428571 1
0.285714285714286 -0.285714285714286 0.4 1
0.257142857142857 -0.257142857142857 0.428571428571429 1
0.228571428571429 -0.228571428571429 0.457142857142857 1
0.2 -0.2 0.485714285714286 1
0.171428571428571 -0.171428571428571 0.514285714285714 1
0.142857142857143 -0.142857142857143 0.542857142857143 1
0.114285714285714 -0.114285714285714 0.571428571428571 1
0.0857142857142857 -0.0857142857142857 0.6 1
0.0571428571428572 -0.0571428571428572 0.628571428571429 1
0.0285714285714286 -0.0285714285714286 0.657142857142857 1
0 0 0.685714285714286 1
-0.0285714285714286 0.0285714285714286 0.714285714285714 1
-0.0571428571428571 0.0571428571428571 0.742857142857143 1
-0.0857142857142857 0.0857142857142857 0.771428571428571 1
-0.114285714285714 0.114285714285714 0.8 1
-0.142857142857143 0.142857142857143 0.828571428571429 1
-0.171428571428571 0.171428571428571 0.857142857142857 1
-0.2 0.2 0.885714285714286 1
-0.228571428571429 0.228571428571429 0.914285714285714 1
-0.257142857142857 0.257142857142857 0.942857142857143 1
0.714285714285714 -0.714285714285714 -0.0285714285714286 1
0.685714285714286 -0.685714285714286 0 1
0.657142857142857 -0.657142857142857 0.0285714285714285 1
0.628571428571429 -0.628571428571429 0.0571428571428572 1
0.6 -0.6 0.0857142857142859 1
0.571428571428571 -0.571428571428571 0.114285714285714 1
0.542857142857143 -0.542857142857143 0.142857142857143 1
0.514285714285714 -0.514285714285714 0.171428571428571 1
0.485714285714286 -0.485714285714286 0.2 1
0.457142857142857 -0.457142857142857 0.228571428571429 1
0.428571428571429 -0.428571428571429 0.257142857142857 1
0.4 -0.4 0.285714285714286 1
0.371428571428571 -0.371428571428571 0.314285714285714 1
0.371428571428571 -0.371428571428571 0.371428571428571 1
0.342857142857143 -0.342857142857143 0.4 1
0.314285714285714 -0.314285714285714 0.428571428571429 1
0.285714285714286 -0.285714285714286 0.457142857142857 1
0.257142857142857 -0.257142857142857 0.485714285714286 1
0.228571428571429 -0.228571428571429 0.514285714285714 1
0.2 -0.2 0.542857142857143 1
0.171428571428571 -0.171428571428571 0.571428571428571 1
0.142857142857143 -0.142857142857143 0.6 1
0.114285714285714 -0.114285714285714 0.628571428571429 1
0.0857142857142857 -0.0857142857142857 0.657142857142857 1
0.0571428571428572 -0.0571428571428572 0.685714285714286 1
0.0285714285714286 -0.0285714285714286 0.714285714285714 1
0 0 0.742857142857143 1
-0.0285714285714285 0.0285714285714285 0.771428571428571 1
-0.0571428571428571 0.0571428571428571 0.8 1
-0.0857142857142857 0.0857142857142857 0.828571428571429 1
-0.114285714285714 0.114285714285714 0.857142857142857 1
-0.142857142857143 0.142857142857143 0.885714285714286 1
-0.171428571428571 0.171428571428571 0.914285714285714 1
-0.2 0.2 0.942857142857143 1
-0.228571428571429 0.228571428571429 0.971428571428571 1
0.742857142857143 -0.742857142857143 0 1
0.714285714285714 -0.714285714285714 0.0285714285714285 1
0.685714285714286 -0.685714285714286 0.0571428571428572 1
0.657142857142857 -0.657142857142857 0.0857142857142859 1
0.628571428571429 -0.628571428571429 0.114285714285714 1
0.6 -0.6 0.142857142857143 1
0.571428571428571 -0.571428571428571 0.171428571428571 1
0.542857142857143 -0.542857142857143 0.2 1
0.514285714285714 -0.514285714285714 0.228571428571429 1
0.485714285714286 -0.485714285714286 0.257142857142857 1
0.457142857142857 -0.457142857142857 0.285714285714286 1
0.428571428571429 -0.428571428571429 0.314285714285714 1
0.4 -0.4 0.342857142857143 1
0.4 -0.4 0.4 1
0.371428571428571 -0.371428571428571 0.428571428571429 1
0.342857142857143 -0.342857142857143 0.457142857142857 1
0.314285714285714 -0.314285714285714 0.485714285714286 1
0.285714285714286 -0.285714285714286 0.514285714285714 1
0.257142857142857 -0.257142857142857 0.542857142857143 1
0.228571428571429 -0.228571428571429 0.571428571428571 1
0.2 -0.2 0.6 1
0.171428571428571 -0.171428571428571 0.628571428571429 1
0.142857142857143 -0.142857142857143 0.657142857142857 1
0.114285714285714 -0.114285714285714 0.685714285714286 1
0.0857142857142857 -0.0857142857142857 0.714285714285714 1
0.0571428571428571 -0.0571428571428571 0.742857142857143 1
0.0285714285714285 -0.0285714285714285 0.771428571428571 1
0 0 0.8 1
-0.0285714285714286 0.0285714285714286 0.828571428571429 1
-0.0571428571428572 0.0571428571428572 0.857142857142857 1
-0.0857142857142857 0.0857142857142857 0.885714285714286 1
-0.114285714285714 0.114285714285714 0.914285714285714 1
-0.142857142857143 0.142857142857143 0.942857142857143 1
-0.171428571428571 0.171428571428571 0.971428571428571 1
-0.2 0.2 1 1
-0.228571428571429 0.228571428571429 -0.971428571428572 1
-0.257142857142857 0.257142857142857 -0.942857142857143 1
-0.285714285714286 0.285714285714286 -0.914285714285714 1
0.685714285714286 -0.685714285714286 0.114285714285714 1
0.657142857142857 -0.657142857142857 0.142857142857143 1
0.628571428571429 -0.628571428571429 0.171428571428571 1
0.6 -0.6 0.2 1
0.571428571428571 -0.571428571428571 0.228571428571428 1
0.542857142857143 -0.542857142857143 0.257142857142857 1
0.514285714285714 -0.514285714285714 0.285714285714286 1
0.485714285714286 -0.485714285714286 0.314285714285714 1
0.457142857142857 -0.457142857142857 0.342857142857143 1
0.428571428571429 -0.428571428571429 0.371428571428571 1
0.428571428571429 -0.428571428571429 0.428571428571429 1
0.4 -0.4 0.457142857142857 1
0.371428571428571 -0.371428571428571 0.485714285714286 1
0.342857142857143 -0.342857142857143 0.514285714285714 1
0.314285714285714 -0.314285714285714 0.542857142857143 1
0.285714285714286 -0.285714285714286 0.571428571428571 1
0.257142857142857 -0.257142857142857 0.6 1
0.228571428571429 -0.228571428571429 0.628571428571429 1
0.2 -0.2 0.657142857142857 1
0.171428571428571 -0.171428571428571 0.685714285714286 1
0.142857142857143 -0.142857142857143 0.714285714285714 1
0.114285714285714 -0.114285714285714 0.742857142857143 1
0.0857142857142857 -0.0857142857142857 0.771428571428571 1
0.0571428571428571 -0.0571428571428571 0.8 1
0.0285714285714286 -0.0285714285714286 0.828571428571429 1
0 0 0.857142857142857 1
-0.0285714285714286 0.0285714285714286 0.885714285714286 1
-0.0571428571428572 0.0571428571428572 0.914285714285714 1
-0.0857142857142857 0.0857142857142857 0.942857142857143 1
-0.114285714285714 0.114285714285714 0.971428571428572 1
-0.142857142857143 0.142857142857143 1 1
-0.171428571428571 0.171428571428571 -0.971428571428572 1
-0.2 0.2 -0.942857142857143 1
-0.228571428571429 0.228571428571429 -0.914285714285714 1
-0.257142857142857 0.257142857142857 -0.885714285714286 1
-0.285714285714286 0.285714285714286 -0.857142857142857 1
-0.314285714285714 0.314285714285714 -0.828571428571429 1
-0.342857142857143 0.342857142857143 -0.8 1
0.628571428571429 -0.628571428571429 0.228571428571429 1
0.6 -0.6 0.257142857142857 1
0.571428571428571 -0.571428571428571 0.285714285714286 1
0.542857142857143 -0.542857142857143 0.314285714285714 1
0.514285714285714 -0.514285714285714 0.342857142857143 1
0.485714285714286 -0.485714285714286 0.371428571428571 1
0.457142857142857 -0.457142857142857 0.4 1
0.457142857142857 -0.457142857142857 0.457142857142857 1
0.428571428571429 -0.428571428571429 0.485714285714286 1
0.4 -0.4 0.514285714285714 1
0.371428571428571 -0.371428571428571 0.542857142857143 1
0.342857142857143 -0.342857142857143 0.571428571428571 1
0.314285714285714 -0.314285714285714 0.6 1
0.285714285714286 -0.285714285714286 0.628571428571429 1
0.257142857142857 -0.257142857142857 0.657142857142857 1
0.228571428571429 -0.228571428571429 0.685714285714286 1
0.2 -0.2 0.714285714285714 1
0.171428571428571 -0.171428571428571 0.742857142857143 1