729
729
0 0 0 1
-0.111111111111111 0.111111111111111 0.111111111111111 1
-0.222222222222222 0.222222222222222 0.222222222222222 1
-0.333333333333333 0.333333333333333 0.333333333333333 1
-0.444444444444444 0.444444444444444 0.444444444444444 1
0.444444444444444 -0.444444444444444 -0.444444444444444 1
0.333333333333333 -0.333333333333333 -0.333333333333333 1
0.222222222222222 -0.222222222222222 -0.222222222222222 1
0.111111111111111 -0.111111111111111 -0.111111111111111 1
0.111111111111111 -0.111111111111111 0.111111111111111 1
0 0 0.222222222222222 1
-0.111111111111111 0.111111111111111 0.333333333333333 1
-0.222222222222222 0.222222222222222 0.444444444444444 1
-0.333333333333333 0.333333333333333 0.555555555555556 1
0.555555555555556 -0.555555555555556 -0.333333333333333 1
0.444444444444444 -0.444444444444444 -0.222222222222222 1
0.333333333333333 -0.333333333333333 -0.111111111111111 1
0.222222222222222 -0.222222222222222 0 1
0.222222222222222 -0.222222222222222 0.222222222222222 1
0.111111111111111 -0.111111111111111 0.333333333333333 1
0 0 0.444444444444444 1
-0.111111111111111 0.111111111111111 0.555555555555556 1
-0.222222222222222 0.222222222222222 0.666666666666667 1
-0.333333333333333 0.333333333333333 0.777777777777778 1
0.555555555555556 -0.555555555555556 -0.111111111111111 1
0.444444444444445 -0.444444444444445 -1.11022302462516e-16 1
0.333333333333333 -0.333333333333333 0.111111111111111 1
0.333333333333333 -0.333333333333333 0.333333333333333 1
0.222222222222222 -0.222222222222222 0.444444444444444 1
0.111111111111111 -0.111111111111111 0.555555555555556 1
0 0 0.666666666666667 1
-0.111111111111111 0.111111111111111 0.777777777777778 1
-0.222222222222222 0.222222222222222 0.888888888888889 1
0.666666666666667 -0.666666666666667 0 1
0.555555555555556 -0.555555555555556 0.111111111111111 1
0.444444444444444 -0.444444444444444 0.222222222222222 1
0.444444444444444 -0.444444444444444 0.444444444444444 1
0.333333333333333 -0.333333333333333 0.555555555555556 1
0.222222222222222 -0.222222222222222 0.666666666666667 1
0.111111111111111 -0.111111111111111 0.777777777777778 1
0 0 0.888888888888889 1
-0.111111111111111 0.111111111111111 1 1
-0.222222222222222 0.222222222222222 -0.888888888888889 1
-0.333333333333333 0.333333333333333 -0.777777777777778 1
0.555555555555556 -0.555555555555556 0.333333333333333 1
-0.444444444444444 0.444444444444444 -0.444444444444444 1
-0.555555555555556 0.555555555555556 -0.333333333333333 1
0.333333333333333 -0.333333333333333 0.777777777777778 1
0.222222222222222 -0.222222222222222 0.888888888888889 1
0.111111111111111 -0.111111111111111 1 1
0 0 -0.888888888888889 1
-0.111111111111111 0.111111111111111 -0.777777777777778 1
-0.222222222222222 0.222222222222222 -0.666666666666667 1
-0.333333333333333 0.333333333333333 -0.555555555555556 1
-0.333333333333333 0.333333333333333 -0.333333333333333 1
-0.444444444444444 0.444444444444444 -0.222222222222222 1
-0.555555555555556 0.555555555555556 -0.111111111111111 1
-0.666666666666667 0.666666666666667 0 1
0.222222222222222 -0.222222222222222 -0.888888888888889 1
0.111111111111111 -0.111111111111111 -0.777777777777778 1
0 0 -0.666666666666667 1
-0.111111111111111 0.111111111111111 -0.555555555555556 1
-0.222222222222222 0.222222222222222 -0.444444444444445 1
-0.222222222222222 0.222222222222222 -0.222222222222222 1
-0.333333333333333 0.333333333333333 -0.111111111111111 1
-0.444444444444445 0.444444444444445 -1.11022302462516e-16 1
-0.555555555555556 0.555555555555556 0.111111111111111 1
0.333333333333333 -0.333333333333333 -0.777777777777778 1
0.222222222222222 -0.222222222222222 -0.666666666666667 1
0.111111111111111 -0.111111111111111 -0.555555555555556 1
0 0 -0.444444444444445 1
-0.111111111111111 0.111111111111111 -0.333333333333333 1
-0.111111111111111 0.111111111111111 -0.111111111111111 1
-0.222222222222222 0.222222222222222 0 1
-0.333333333333333 0.333333333333333 0.111111111111111 1
-0.444444444444444 0.444444444444444 0.222222222222222 1
-0.555555555555556 0.555555555555556 0.333333333333333 1
0.333333333333333 -0.333333333333333 -0.555555555555556 1
0.222222222222222 -0.222222222222222 -0.444444444444445 1
0.111111111111111 -0.111111111111111 -0.333333333333333 1
0 0 -0.222222222222222 1
0.111111111111111 0.111111111111111 -0.111111111111111 1
0 0.222222222222222 0 1
-0.111111111111111 0.333333333333333 0.111111111111111 1
-0.222222222222222 0.444444444444444 0.222222222222222 1
-0.333333333333333 0.555555555555556 0.333333333333333 1
0.555555555555556 -0.333333333333333 -0.555555555555556 1
0.444444444444444 -0.222222222222222 -0.444444444444444 1
0.333333333333333 -0.111111111111111 -0.333333333333333 1
0.222222222222222 0 -0.222222222222222 1
0.222222222222222 0 0 1
0.111111111111111 0.111111111111111 0.111111111111111 1
0 0.222222222222222 0.222222222222222 1
-0.111111111111111 0.333333333333333 0.333333333333333 1
-0.222222222222222 0.444444444444444 0.444444444444444 1
-0.333333333333333 0.555555555555556 0.555555555555556 1
0.555555555555556 -0.333333333333333 -0.333333333333333 1
0.444444444444445 -0.222222222222222 -0.222222222222222 1
0.333333333333333 -0.111111111111111 -0.111111111111111 1
0.333333333333333 -0.111111111111111 0.111111111111111 1
0.222222222222222 0 0.222222222222222 1
0.111111111111111 0.111111111111111 0.333333333333333 1
0 0.222222222222222 0.444444444444444 1
-0.111111111111111 0.333333333333333 0.555555555555556 1
-0.222222222222222 0.444444444444444 0.666666666666667 1
0.666666666666667 -0.444444444444444 -0.222222222222222 1
0.555555555555556 -0.333333333333333 -0.111111111111111 1
0.444444444444444 -0.222222222222222 0 1
0.444444444444444 -0.222222222222222 0.222222222222222 1
0.333333333333333 -0.111111111111111 0.333333333333333 1
0.222222222222222 0 0.444444444444444 1
0.111111111111111 0.111111111111111 0.555555555555556 1
0 0.222222222222222 0.666666666666667 1
-0.111111111111111 0.333333333333333 0.777777777777778 1
0.777777777777778 -0.555555555555556 -0.111111111111111 1
0.666666666666667 -0.444444444444445 -2.22044604925031e-16 1
0.555555555555556 -0.333333333333333 0.111111111111111 1
0.555555555555556 -0.333333333333333 0.333333333333333 1
0.444444444444444 -0.222222222222222 0.444444444444444 1
0.333333333333333 -0.111111111111111 0.555555555555556 1
0.222222222222222 0 0.666666666666667 1
0.111111111111111 0.111111111111111 0.777777777777778 1
-5.55111512312578e-17 0.222222222222222 0.888888888888889 1
-0.111111111111111 0.333333333333333 1 1
0.777777777777778 -0.555555555555556 0.111111111111111 1
0.666666666666667 -0.444444444444444 0.222222222222222 1
-0.333333333333333 0.555555555555556 -0.555555555555556 1
0.555555555555556 -0.333333333333333 0.555555555555556 1
0.444444444444444 -0.222222222222222 0.666666666666667 1
0.333333333333333 -0.111111111111111 0.777777777777778 1
0.222222222222222 -5.55111512312578e-17 0.888888888888889 1
0.111111111111111 0.111111111111111 1 1
0 0.222222222222222 -0.888888888888889 1
-0.111111111111111 0.333333333333333 -0.777777777777778 1
-0.222222222222222 0.444444444444444 -0.666666666666667 1
-0.222222222222222 0.444444444444444 -0.444444444444444 1
-0.333333333333333 0.555555555555556 -0.333333333333333 1
-0.444444444444444 0.666666666666667 -0.222222222222222 1
-0.555555555555556 0.777777777777778 -0.111111111111111 1
0.333333333333333 -0.111111111111111 1 1
0.222222222222222 0 -0.888888888888889 1
0.111111111111111 0.111111111111111 -0.777777777777778 1
0 0.222222222222222 -0.666666666666667 1
-0.111111111111111 0.333333333333333 -0.555555555555556 1
-0.111111111111111 0.333333333333333 -0.333333333333333 1
-0.222222222222222 0.444444444444445 -0.222222222222222 1
-0.333333333333333 0.555555555555556 -0.111111111111111 1
-0.444444444444445 0.666666666666667 -2.22044604925031e-16 1
-0.555555555555556 0.777777777777778 0.111111111111111 1
0.333333333333333 -0.111111111111111 -0.777777777777778 1
0.222222222222222 0 -0.666666666666667 1
0.111111111111111 0.111111111111111 -0.555555555555556 1
0 0.222222222222222 -0.444444444444445 1
0 0.222222222222222 -0.222222222222222 1
-0.111111111111111 0.333333333333333 -0.111111111111111 1
-0.222222222222222 0.444444444444444 0 1
-0.333333333333333 0.555555555555556 0.111111111111111 1
-0.444444444444444 0.666666666666667 0.222222222222222 1
0.444444444444444 -0.222222222222222 -0.666666666666667 1
0.333333333333333 -0.111111111111111 -0.555555555555556 1
0.222222222222222 0 -0.444444444444445 1
0.111111111111111 0.111111111111111 -0.333333333333333 1
0.222222222222222 0.222222222222222 -0.222222222222222 1
0.111111111111111 0.333333333333333 -0.111111111111111 1
0 0.444444444444444 0 1
-0.111111111111111 0.555555555555556 0.111111111111111 1
-0.222222222222222 0.666666666666667 0.222222222222222 1
-0.333333333333333 0.777777777777778 0.333333333333333 1
0.555555555555556 -0.111111111111111 -0.555555555555556 1
0.444444444444445 -1.11022302462516e-16 -0.444444444444445 1
0.333333333333333 0.111111111111111 -0.333333333333333 1
0.333333333333333 0.111111111111111 -0.111111111111111 1
0.222222222222222 0.222222222222222 0 1
0.111111111111111 0.333333333333333 0.111111111111111 1
0 0.444444444444444 0.222222222222222 1
-0.111111111111111 0.555555555555556 0.333333333333333 1
-0.222222222222222 0.666666666666667 0.444444444444445 1
0.666666666666667 -0.222222222222222 -0.444444444444445 1
0.555555555555556 -0.111111111111111 -0.333333333333333 1
0.444444444444445 -1.11022302462516e-16 -0.222222222222222 1
0.444444444444444 0 0 1
0.333333333333333 0.111111111111111 0.111111111111111 1
0.222222222222222 0.222222222222222 0.222222222222222 1
0.111111111111111 0.333333333333333 0.333333333333333 1
0 0.444444444444444 0.444444444444444 1
-0.111111111111111 0.555555555555556 0.555555555555556 1
0.777777777777778 -0.333333333333333 -0.333333333333333 1
0.666666666666667 -0.222222222222222 -0.222222222222222 1
0.555555555555556 -0.111111111111111 -0.111111111111111 1
0.555555555555556 -0.111111111111111 0.111111111111111 1
0.444444444444444 0 0.222222222222222 1
0.333333333333333 0.111111111111111 0.333333333333333 1
0.222222222222222 0.222222222222222 0.444444444444444 1
0.111111111111111 0.333333333333333 0.555555555555555 1
-5.55111512312578e-17 0.444444444444444 0.666666666666667 1
-0.111111111111111 0.555555555555556 0.777777777777778 1
0.777777777777778 -0.333333333333333 -0.111111111111111 1
0.666666666666667 -0.222222222222222 -1.11022302462516e-16 1
0.666666666666667 -0.222222222222222 0.222222222222222 1
0.555555555555556 -0.111111111111111 0.333333333333333 1
0.444444444444444 0 0.444444444444444 1
0.333333333333333 0.111111111111111 0.555555555555555 1
0.222222222222222 0.222222222222222 0.666666666666667 1
0.111111111111111 0.333333333333333 0.777777777777778 1
0 0.444444444444444 0.888888888888889 1
0.888888888888889 -0.444444444444445 -1.11022302462516e-16 1
0.777777777777778 -0.333333333333333 0.111111111111111 1
0.777777777777778 -0.333333333333333 0.333333333333333 1
0.666666666666667 -0.222222222222222 0.444444444444445 1
0.555555555555556 -0.111111111111111 0.555555555555556 1
0.444444444444444 -5.55111512312578e-17 0.666666666666667 1
0.333333333333333 0.111111111111111 0.777777777777778 1
0.222222222222222 0.222222222222222 0.888888888888889 1
0.111111111111111 0.333333333333333 1 1
0 0.444444444444444 -0.888888888888889 1
-0.111111111111111 0.555555555555555 -0.777777777777778 1
-0.111111111111111 0.555555555555556 -0.555555555555556 1
-0.222222222222222 0.666666666666667 -0.444444444444445 1
-0.333333333333333 0.777777777777778 -0.333333333333333 1
0.555555555555556 -0.111111111111111 0.777777777777778 1
0.444444444444444 0 0.888888888888889 1
0.333333333333333 0.111111111111111 1 1
0.222222222222222 0.222222222222222 -0.888888888888889 1
0.111111111111111 0.333333333333333 -0.777777777777778 1
0 0.444444444444444 -0.666666666666667 1
-1.11022302462516e-16 0.444444444444445 -0.444444444444445 1
-0.111111111111111 0.555555555555556 -0.333333333333333 1
-0.222222222222222 0.666666666666667 -0.222222222222222 1
-0.333333333333333 0.777777777777778 -0.111111111111111 1
-0.444444444444445 0.888888888888889 -1.11022302462516e-16 1
0.444444444444444 1.11022302462516e-16 -0.888888888888889 1
0.333333333333333 0.111111111111111 -0.777777777777778 1
0.222222222222222 0.222222222222222 -0.666666666666667 1
0.111111111111111 0.333333333333333 -0.555555555555556 1
0.111111111111111 0.333333333333333 -0.333333333333333 1
-1.11022302462516e-16 0.444444444444445 -0.222222222222222 1
-0.111111111111111 0.555555555555556 -0.111111111111111 1
-0.222222222222222 0.666666666666667 -1.11022302462516e-16 1
-0.333333333333333 0.777777777777778 0.111111111111111 1
0.555555555555555 -0.111111111111111 -0.777777777777778 1
0.444444444444444 0 -0.666666666666667 1
0.333333333333333 0.111111111111111 -0.555555555555556 1
0.222222222222222 0.222222222222222 -0.444444444444445 1
0.333333333333333 0.333333333333333 -0.333333333333333 1
0.222222222222222 0.444444444444444 -0.222222222222222 1
0.111111111111111 0.555555555555556 -0.111111111111111 1
0 0.666666666666667 0 1
-0.111111111111111 0.777777777777778 0.111111111111111 1
-0.222222222222222 0.888888888888889 0.222222222222222 1
0.666666666666667 0 -0.666666666666667 1
0.555555555555556 0.111111111111111 -0.555555555555556 1
0.444444444444444 0.222222222222222 -0.444444444444444 1
0.444444444444444 0.222222222222222 -0.222222222222222 1
0.333333333333333 0.333333333333333 -0.111111111111111 1
0.222222222222222 0.444444444444444 0 1
0.111111111111111 0.555555555555556 0.111111111111111 1
0 0.666666666666667 0.222222222222222 1
-0.111111111111111 0.777777777777778 0.333333333333333 1
0.777777777777778 -0.111111111111111 -0.555555555555556 1
0.666666666666667 -2.22044604925031e-16 -0.444444444444444 1
0.555555555555556 0.111111111111111 -0.333333333333333 1
0.555555555555556 0.111111111111111 -0.111111111111111 1
0.444444444444444 0.222222222222222 0 1
0.333333333333333 0.333333333333333 0.111111111111111 1
0.222222222222222 0.444444444444444 0.222222222222222 1
0.111111111111111 0.555555555555556 0.333333333333333 1
-5.55111512312578e-17 0.666666666666667 0.444444444444444 1
-0.111111111111111 0.777777777777778 0.555555555555556 1
0.777777777777778 -0.111111111111111 -0.333333333333333 1
0.666666666666667 0 -0.222222222222222 1
0.666666666666667 0 0 1
0.555555555555556 0.111111111111111 0.111111111111111 1
0.444444444444444 0.222222222222222 0.222222222222222 1
0.333333333333333 0.333333333333333 0.333333333333333 1
0.222222222222222 0.444444444444444 0.444444444444444 1
0.111111111111111 0.555555555555556 0.555555555555556 1
0 0.666666666666667 0.666666666666667 1
0.888888888888889 -0.222222222222222 -0.222222222222222 1
0.777777777777778 -0.111111111111111 -0.111111111111111 1
0.777777777777778 -0.111111111111111 0.111111111111111 1
0.666666666666667 0 0.222222222222222 1
0.555555555555556 0.111111111111111 0.333333333333333 1
0.444444444444444 0.222222222222222 0.444444444444444 1
0.333333333333333 0.333333333333333 0.555555555555556 1
0.222222222222222 0.444444444444444 0.666666666666667 1
0.111111111111111 0.555555555555556 0.777777777777778 1
-1 -0.333333333333333 -0.111111111111111 1
0.888888888888889 -0.222222222222222 0 1
0.888888888888889 -0.222222222222222 0.222222222222222 1
0.777777777777778 -0.111111111111111 0.333333333333333 1
0.666666666666667 -5.55111512312578e-17 0.444444444444444 1
0.555555555555556 0.111111111111111 0.555555555555556 1
0.444444444444444 0.222222222222222 0.666666666666667 1
0.333333333333333 0.333333333333333 0.777777777777778 1
-0.777777777777778 -0.555555555555556 -0.111111111111111 1
-0.888888888888889 -0.444444444444445 0 1
-1 -0.333333333333333 0.111111111111111 1
0 0.666666666666667 -0.666666666666667 1
-0.111111111111111 0.777777777777778 -0.555555555555556 1
0.777777777777778 -0.111111111111111 0.555555555555556 1
0.666666666666667 0 0.666666666666667 1
0.555555555555556 0.111111111111111 0.777777777777778 1
-0.555555555555556 -0.777777777777778 -0.111111111111111 1
-0.666666666666667 -0.666666666666667 0 1
-0.777777777777778 -0.555555555555556 0.111111111111111 1
0.111111111111111 0.555555555555556 -0.777777777777778 1
0.111111111111111 0.555555555555556 -0.555555555555556 1
-2.22044604925031e-16 0.666666666666667 -0.444444444444444 1
-0.111111111111111 0.777777777777778 -0.333333333333333 1
-0.222222222222222 0.888888888888889 -0.222222222222222 1
-0.333333333333333 -1 -0.111111111111111 1
-0.444444444444445 -0.888888888888889 0 1
-0.555555555555556 -0.777777777777778 0.111111111111111 1
0.333333333333333 0.333333333333333 -0.777777777777778 1
0.222222222222222 0.444444444444444 -0.666666666666667 1
0.222222222222222 0.444444444444444 -0.444444444444444 1
0.111111111111111 0.555555555555556 -0.333333333333333 1
0 0.666666666666667 -0.222222222222222 1
-0.111111111111111 0.777777777777778 -0.111111111111111 1
-0.222222222222222 0.888888888888889 0 1
-0.333333333333333 -1 0.111111111111111 1
0.555555555555556 0.111111111111111 -0.777777777777778 1
0.444444444444444 0.222222222222222 -0.666666666666667 1
0.333333333333333 0.333333333333333 -0.555555555555556 1
0.444444444444444 0.444444444444444 -0.444444444444444 1
0.333333333333333 0.555555555555556 -0.333333333333333 1
0.222222222222222 0.666666666666667 -0.222222222222222 1
0.111111111111111 0.777777777777778 -0.111111111111111 1
0 0.888888888888889 0 1
-0.111111111111111 1 0.111111111111111 1
-0.222222222222222 -0.888888888888889 0.222222222222222 1
-0.333333333333333 -0.777777777777778 0.333333333333333 1
0.555555555555556 0.333333333333333 -0.555555555555556 1
0.555555555555556 0.333333333333333 -0.333333333333333 1
0.444444444444444 0.444444444444444 -0.222222222222222 1
0.333333333333333 0.555555555555556 -0.111111111111111 1
0.222222222222222 0.666666666666667 0 1
0.111111111111111 0.777777777777778 0.111111111111111 1
-5.55111512312578e-17 0.888888888888889 0.222222222222222 1
-0.111111111111111 1 0.333333333333333 1
0.777777777777778 0.111111111111111 -0.555555555555556 1
0.666666666666667 0.222222222222222 -0.444444444444444 1
0.666666666666667 0.222222222222222 -0.222222222222222 1
0.555555555555556 0.333333333333333 -0.111111111111111 1
0.444444444444444 0.444444444444444 0 1
0.333333333333333 0.555555555555556 0.111111111111111 1
0.222222222222222 0.666666666666667 0.222222222222222 1
0.111111111111111 0.777777777777778 0.333333333333333 1
0 0.888888888888889 0.444444444444444 1
0.888888888888889 -1.11022302462516e-16 -0.444444444444445 1
0.777777777777778 0.111111111111111 -0.333333333333333 1
0.777777777777778 0.111111111111111 -0.111111111111111 1
0.666666666666667 0.222222222222222 0 1
0.555555555555556 0.333333333333333 0.111111111111111 1
0.444444444444444 0.444444444444444 0.222222222222222 1
0.333333333333333 0.555555555555556 0.333333333333333 1
0.222222222222222 0.666666666666667 0.444444444444444 1
0.111111111111111 0.777777777777778 0.555555555555556 1
-1 -0.111111111111111 -0.333333333333333 1
0.888888888888889 0 -0.222222222222222 1
0.888888888888889 0 0 1
0.777777777777778 0.111111111111111 0.111111111111111 1
0.666666666666667 0.222222222222222 0.222222222222222 1
0.555555555555556 0.333333333333333 0.333333333333333 1
0.444444444444444 0.444444444444444 0.444444444444444 1
0.333333333333333 0.555555555555556 0.555555555555556 1
-0.777777777777778 -0.333333333333333 -0.333333333333333 1
-0.888888888888889 -0.222222222222222 -0.222222222222222 1
-1 -0.111111111111111 -0.111111111111111 1
1 -0.111111111111111 0.111111111111111 1
0.888888888888889 -5.55111512312578e-17 0.222222222222222 1
0.777777777777778 0.111111111111111 0.333333333333333 1
0.666666666666667 0.222222222222222 0.444444444444444 1
0.555555555555556 0.333333333333333 0.555555555555556 1
-0.555555555555556 -0.555555555555556 -0.333333333333333 1
-0.666666666666667 -0.444444444444445 -0.222222222222222 1
-0.777777777777778 -0.333333333333333 -0.111111111111111 1
-0.888888888888889 -0.222222222222222 0 1
-0.888888888888889 -0.222222222222222 0.222222222222222 1
1 -0.111111111111111 0.333333333333333 1
0.888888888888889 0 0.444444444444444 1
0.777777777777778 0.111111111111111 0.555555555555556 1
-0.333333333333333 -0.777777777777778 -0.333333333333333 1
-0.444444444444445 -0.666666666666667 -0.222222222222222 1
-0.555555555555556 -0.555555555555556 -0.111111111111111 1
-0.666666666666667 -0.444444444444445 -2.22044604925031e-16 1
-0.777777777777778 -0.333333333333333 0.111111111111111 1
-0.777777777777778 -0.333333333333333 0.333333333333333 1
0.111111111111111 0.777777777777778 -0.555555555555556 1
-1.11022302462516e-16 0.888888888888889 -0.444444444444445 1
-0.111111111111111 -1 -0.333333333333333 1
-0.222222222222222 -0.888888888888889 -0.222222222222222 1
-0.333333333333333 -0.777777777777778 -0.111111111111111 1
-0.444444444444445 -0.666666666666667 -2.22044604925031e-16 1
-0.555555555555556 -0.555555555555556 0.111111111111111 1
-0.666666666666667 -0.444444444444444 0.222222222222222 1
0.333333333333333 0.555555555555556 -0.555555555555556 1
0.222222222222222 0.666666666666667 -0.444444444444444 1
0.111111111111111 0.777777777777778 -0.333333333333333 1
0 0.888888888888889 -0.222222222222222 1
-0.111111111111111 -1 -0.111111111111111 1
-0.222222222222222 -0.888888888888889 0 1
-0.333333333333333 -0.777777777777778 0.111111111111111 1
-0.444444444444444 -0.666666666666667 0.222222222222222 1
-0.555555555555556 -0.555555555555556 0.333333333333333 1
-0.444444444444444 -0.444444444444444 0.444444444444444 1
-0.555555555555556 -0.333333333333333 0.555555555555556 1
0.333333333333333 0.777777777777778 -0.333333333333333 1
0.222222222222222 0.888888888888889 -0.222222222222222 1
0.111111111111111 1 -0.111111111111111 1
0 -0.888888888888889 0 1
-0.111111111111111 -0.777777777777778 0.111111111111111 1
-0.222222222222222 -0.666666666666667 0.222222222222222 1
-0.333333333333333 -0.555555555555556 0.333333333333333 1
-0.333333333333333 -0.555555555555556 0.555555555555556 1
0.555555555555556 0.555555555555556 -0.333333333333333 1
0.444444444444444 0.666666666666667 -0.222222222222222 1
0.333333333333333 0.777777777777778 -0.111111111111111 1
0.222222222222222 0.888888888888889 0 1
0.111111111111111 1 0.111111111111111 1
0 -0.888888888888889 0.222222222222222 1
-0.111111111111111 -0.777777777777778 0.333333333333333 1
-0.222222222222222 -0.666666666666667 0.444444444444444 1
0.777777777777778 0.333333333333333 -0.333333333333333 1
0.666666666666667 0.444444444444444 -0.222222222222222 1
0.555555555555556 0.555555555555556 -0.111111111111111 1
0.444444444444444 0.666666666666667 0 1
0.333333333333333 0.777777777777778 0.111111111111111 1
0.222222222222222 0.888888888888889 0.222222222222222 1
0.111111111111111 1 0.333333333333333 1
0 -0.888888888888889 0.444444444444444 1
-0.111111111111111 -0.777777777777778 0.555555555555556 1
0.888888888888889 0.222222222222222 -0.222222222222222 1
0.777777777777778 0.333333333333333 -0.111111111111111 1
0.666666666666667 0.444444444444444 0 1
0.555555555555556 0.555555555555556 0.111111111111111 1
0.444444444444444 0.666666666666667 0.222222222222222 1
0.333333333333333 0.777777777777778 0.333333333333333 1
-0.777777777777778 -0.111111111111111 -0.555555555555556 1
-0.888888888888889 0 -0.444444444444445 1
-1 0.111111111111111 -0.333333333333333 1
1 0.111111111111111 -0.111111111111111 1
0.888888888888889 0.222222222222222 0 1
0.777777777777778 0.333333333333333 0.111111111111111 1
0.666666666666667 0.444444444444444 0.222222222222222 1
0.555555555555556 0.555555555555556 0.333333333333333 1
-0.555555555555556 -0.333333333333333 -0.555555555555556 1
-0.666666666666667 -0.222222222222222 -0.444444444444444 1
-0.777777777777778 -0.111111111111111 -0.333333333333333 1
-0.888888888888889 0 -0.222222222222222 1
-0.888888888888889 0 0 1
1 0.111111111111111 0.111111111111111 1
0.888888888888889 0.222222222222222 0.222222222222222 1
0.777777777777778 0.333333333333333 0.333333333333333 1
-0.333333333333333 -0.555555555555556 -0.555555555555556 1
-0.444444444444444 -0.444444444444444 -0.444444444444444 1
-0.555555555555555 -0.333333333333333 -0.333333333333333 1
-0.666666666666667 -0.222222222222222 -0.222222222222222 1
-0.777777777777778 -0.111111111111111 -0.111111111111111 1
-0.777777777777778 -0.111111111111111 0.111111111111111 1
-0.888888888888889 0 0.222222222222222 1
1 0.111111111111111 0.333333333333333 1
-0.111111111111111 -0.777777777777778 -0.555555555555556 1
-0.222222222222222 -0.666666666666667 -0.444444444444444 1
-0.333333333333333 -0.555555555555555 -0.333333333333333 1
-0.444444444444444 -0.444444444444444 -0.222222222222222 1
-0.555555555555555 -0.333333333333333 -0.111111111111111 1
-0.666666666666667 -0.222222222222222 -2.22044604925031e-16 1
-0.666666666666667 -0.222222222222222 0.222222222222222 1
-0.777777777777778 -0.111111111111111 0.333333333333333 1
-0.888888888888889 0 0.444444444444444 1
0 -0.888888888888889 -0.444444444444445 1
-0.111111111111111 -0.777777777777778 -0.333333333333333 1
-0.222222222222222 -0.666666666666667 -0.222222222222222 1
-0.333333333333333 -0.555555555555555 -0.111111111111111 1
-0.444444444444444 -0.444444444444444 -2.22044604925031e-16 1
-0.555555555555556 -0.333333333333333 0.111111111111111 1
-0.555555555555556 -0.333333333333333 0.333333333333333 1
-0.666666666666667 -0.222222222222222 0.444444444444444 1
-0.777777777777778 -0.111111111111111 0.555555555555556 1
0.111111111111111 -1 -0.333333333333333 1
0 -0.888888888888889 -0.222222222222222 1
-0.111111111111111 -0.777777777777778 -0.111111111111111 1
-0.222222222222222 -0.666666666666667 -2.22044604925031e-16 1
-0.333333333333333 -0.555555555555556 0.111111111111111 1
-0.444444444444444 -0.444444444444444 0.222222222222222 1
-0.333333333333333 -0.333333333333333 0.333333333333333 1
-0.444444444444444 -0.222222222222222 0.444444444444444 1
-0.555555555555556 -0.111111111111111 0.555555555555556 1
-0.666666666666667 0 0.666666666666667 1
0.222222222222222 -0.888888888888889 -0.222222222222222 1
0.111111111111111 -0.777777777777778 -0.111111111111111 1
0 -0.666666666666667 0 1
-0.111111111111111 -0.555555555555556 0.111111111111111 1
-0.222222222222222 -0.444444444444445 0.222222222222222 1
-0.222222222222222 -0.444444444444444 0.444444444444444 1
-0.333333333333333 -0.333333333333333 0.555555555555556 1
-0.444444444444444 -0.222222222222222 0.666666666666667 1
-0.555555555555556 -0.111111111111111 0.777777777777778 1
0.333333333333333 1 -0.111111111111111 1
0.222222222222222 -0.888888888888889 1.11022302462516e-16 1
0.111111111111111 -0.777777777777778 0.111111111111111 1
0 -0.666666666666667 0.222222222222222 1
-0.111111111111111 -0.555555555555556 0.333333333333333 1
-0.111111111111111 -0.555555555555556 0.555555555555556 1
-0.222222222222222 -0.444444444444444 0.666666666666667 1
-0.333333333333333 -0.333333333333333 0.777777777777778 1
0.555555555555556 0.777777777777778 -0.111111111111111 1
0.444444444444444 0.888888888888889 0 1
0.333333333333333 1 0.111111111111111 1
0.222222222222222 -0.888888888888889 0.222222222222222 1
0.111111111111111 -0.777777777777778 0.333333333333333 1
0 -0.666666666666667 0.444444444444445 1
0 -0.666666666666667 0.666666666666667 1
-0.111111111111111 -0.555555555555556 0.777777777777778 1
0.777777777777778 0.555555555555556 -0.111111111111111 1
0.666666666666667 0.666666666666667 0 1
0.555555555555556 0.777777777777778 0.111111111111111 1
-0.555555555555556 -0.111111111111111 -0.777777777777778 1
-0.666666666666667 0 -0.666666666666667 1
-0.777777777777778 0.111111111111111 -0.555555555555556 1
0.111111111111111 -0.777777777777778 0.555555555555555 1
-0.888888888888889 0.222222222222222 -0.222222222222222 1
1 0.333333333333333 -0.111111111111111 1
0.888888888888889 0.444444444444444 0 1
0.777777777777778 0.555555555555556 0.111111111111111 1
-0.333333333333333 -0.333333333333333 -0.777777777777778 1
-0.444444444444445 -0.222222222222222 -0.666666666666667 1
-0.555555555555556 -0.111111111111111 -0.555555555555555 1
-0.666666666666667 -1.11022302462516e-16 -0.444444444444445 1
-0.777777777777778 0.111111111111111 -0.333333333333333 1
-0.777777777777778 0.111111111111111 -0.111111111111111 1
-0.888888888888889 0.222222222222222 1.11022302462516e-16 1
1 0.333333333333333 0.111111111111111 1
-0.111111111111111 -0.555555555555556 -0.777777777777778 1
-0.222222222222222 -0.444444444444445 -0.666666666666667 1
-0.333333333333333 -0.333333333333333 -0.555555555555555 1
-0.444444444444444 -0.222222222222222 -0.444444444444444 1
-0.555555555555555 -0.111111111111111 -0.333333333333333 1
-0.666666666666667 -1.11022302462516e-16 -0.222222222222222 1
-0.666666666666667 0 0 1
-0.777777777777778 0.111111111111111 0.111111111111111 1
-0.888888888888889 0.222222222222222 0.222222222222222 1
0 -0.666666666666667 -0.666666666666667 1
-0.111111111111111 -0.555555555555556 -0.555555555555555 1
-0.222222222222222 -0.444444444444444 -0.444444444444444 1
-0.333333333333333 -0.333333333333333 -0.333333333333333 1
-0.444444444444444 -0.222222222222222 -0.222222222222222 1
-0.555555555555556 -0.111111111111111 -0.111111111111111 1
-0.555555555555556 -0.111111111111111 0.111111111111111 1
-0.666666666666667 0 0.222222222222222 1
-0.777777777777778 0.111111111111111 0.333333333333333 1
0.111111111111111 -0.777777777777778 -0.555555555555556 1
0 -0.666666666666667 -0.444444444444445 1