3375
3375
0 0 0 1
-0.0666666666666667 0.0666666666666667 0.0666666666666667 1
-0.133333333333333 0.133333333333333 0.133333333333333 1
-0.2 0.2 0.2 1
-0.266666666666667 0.266666666666667 0.266666666666667 1
-0.333333333333333 0.333333333333333 0.333333333333333 1
-0.4 0.4 0.4 1
-0.466666666666667 0.466666666666667 0.466666666666667 1
0.466666666666667 -0.466666666666667 -0.466666666666667 1
0.4 -0.4 -0.4 1
0.333333333333333 -0.333333333333333 -0.333333333333333 1
0.266666666666667 -0.266666666666667 -0.266666666666667 1
0.2 -0.2 -0.2 1
0.133333333333333 -0.133333333333333 -0.133333333333333 1
0.0666666666666667 -0.0666666666666667 -0.0666666666666667 1
0.0666666666666667 -0.0666666666666667 0.0666666666666667 1
0 0 0.133333333333333 1
-0.0666666666666667 0.0666666666666667 0.2 1
-0.133333333333333 0.133333333333333 0.266666666666667 1
-0.2 0.2 0.333333333333333 1
-0.266666666666667 0.266666666666667 0.4 1
-0.333333333333333 0.333333333333333 0.466666666666667 1
-0.4 0.4 0.533333333333333 1
0.533333333333333 -0.533333333333333 -0.4 1
0.466666666666667 -0.466666666666667 -0.333333333333333 1
0.4 -0.4 -0.266666666666667 1
0.333333333333333 -0.333333333333333 -0.2 1
0.266666666666667 -0.266666666666667 -0.133333333333333 1
0.2 -0.2 -0.0666666666666667 1
0.133333333333333 -0.133333333333333 0 1
0.133333333333333 -0.133333333333333 0.133333333333333 1
0.0666666666666667 -0.0666666666666667 0.2 1
0 0 0.266666666666667 1
-0.0666666666666667 0.0666666666666667 0.333333333333333 1
-0.133333333333333 0.133333333333333 0.4 1
-0.2 0.2 0.466666666666667 1
-0.266666666666667 0.266666666666667 0.533333333333333 1
-0.333333333333333 0.333333333333333 0.6 1
-0.4 0.4 0.666666666666667 1
0.533333333333333 -0.533333333333333 -0.266666666666667 1
0.466666666666667 -0.466666666666667 -0.2 1
0.4 -0.4 -0.133333333333333 1
0.333333333333333 -0.333333333333333 -0.0666666666666667 1
0.266666666666667 -0.266666666666667 0 1
0.2 -0.2 0.0666666666666667 1
0.2 -0.2 0.2 1
0.133333333333333 -0.133333333333333 0.266666666666667 1
0.0666666666666667 -0.0666666666666667 0.333333333333333 1
0 0 0.4 1
-0.0666666666666667 0.0666666666666667 0.466666666666667 1
-0.133333333333333 0.133333333333333 0.533333333333333 1
-0.2 0.2 0.6 1
-0.266666666666667 0.266666666666667 0.666666666666667 1
-0.333333333333333 0.333333333333333 0.733333333333333 1
0.6 -0.6 -0.2 1
0.533333333333333 -0.533333333333333 -0.133333333333333 1
0.466666666666667 -0.466666666666667 -0.0666666666666667 1
0.4 -0.4 0 1
0.333333333333333 -0.333333333333333 0.0666666666666667 1
0.266666666666667 -0.266666666666667 0.133333333333333 1
0.266666666666667 -0.266666666666667 0.266666666666667 1
0.2 -0.2 0.333333333333333 1
0.133333333333333 -0.133333333333333 0.4 1
0.0666666666666667 -0.0666666666666667 0.466666666666667 1
0 0 0.533333333333333 1
-0.0666666666666667 0.0666666666666667 0.6 1
-0.133333333333333 0.133333333333333 0.666666666666667 1
-0.2 0.2 0.733333333333333 1
-0.266666666666667 0.266666666666667 0.8 1
0.666666666666667 -0.666666666666667 -0.133333333333333 1
0.6 -0.6 -0.0666666666666667 1
0.533333333333333 -0.533333333333333 0 1
0.466666666666667 -0.466666666666667 0.0666666666666667 1
0.4 -0.4 0.133333333333333 1
0.333333333333333 -0.333333333333333 0.2 1
0.333333333333333 -0.333333333333333 0.333333333333333 1
0.266666666666667 -0.266666666666667 0.4 1
0.2 -0.2 0.466666666666667 1
0.133333333333333 -0.133333333333333 0.533333333333333 1
0.0666666666666667 -0.0666666666666667 0.6 1
0 0 0.666666666666667 1
-0.0666666666666667 0.0666666666666667 0.733333333333333 1
-0.133333333333333 0.133333333333333 0.8 1
-0.2 0.2 0.866666666666667 1
-0.266666666666667 0.266666666666667 0.933333333333333 1
0.666666666666667 -0.666666666666667 0 1
0.6 -0.6 0.0666666666666667 1
0.533333333333333 -0.533333333333333 0.133333333333333 1
0.466666666666667 -0.466666666666667 0.2 1
0.4 -0.4 0.266666666666667 1
0.4 -0.4 0.4 1
0.333333333333333 -0.333333333333333 0.466666666666667 1
0.266666666666667 -0.266666666666667 0.533333333333333 1
0.2 -0.2 0.6 1
0.133333333333333 -0.133333333333333 0.666666666666667 1
0.0666666666666667 -0.0666666666666667 0.733333333333333 1
0 0 0.8 1
-0.0666666666666667 0.0666666666666667 0.866666666666667 1
-0.133333333333333 0.133333333333333 0.933333333333333 1
-0.2 0.2 1 1
-0.266666666666667 0.266666666666667 -0.933333333333333 1
0.666666666666667 -0.666666666666667 0.133333333333333 1
0.6 -0.6 0.2 1
0.533333333333333 -0.533333333333333 0.266666666666667 1
0.466666666666667 -0.466666666666667 0.333333333333333 1
0.466666666666667 -0.466666666666667 0.466666666666667 1
0.4 -0.4 0.533333333333333 1
0.333333333333333 -0.333333333333333 0.6 1
0.266666666666667 -0.266666666666667 0.666666666666667 1
0.2 -0.2 0.733333333333333 1
0.133333333333333 -0.133333333333333 0.8 1
0.0666666666666667 -0.0666666666666667 0.866666666666667 1
0 0 0.933333333333333 1
-0.0666666666666667 0.0666666666666667 1 1
-0.133333333333333 0.133333333333333 -0.933333333333333 1
-0.2 0.2 -0.866666666666667 1
-0.266666666666667 0.266666666666667 -0.8 1
-0.333333333333333 0.333333333333333 -0.733333333333333 1
-0.4 0.4 -0.666666666666667 1
0.533333333333333 -0.533333333333333 0.4 1
-0.466666666666667 0.466666666666667 -0.466666666666667 1
-0.533333333333333 0.533333333333333 -0.4 1
0.4 -0.4 0.666666666666667 1
0.333333333333333 -0.333333333333333 0.733333333333333 1
0.266666666666667 -0.266666666666667 0.8 1
0.2 -0.2 0.866666666666667 1
0.133333333333333 -0.133333333333333 0.933333333333333 1
0.0666666666666667 -0.0666666666666667 1 1
0 0 -0.933333333333333 1
-0.0666666666666668 0.0666666666666668 -0.866666666666667 1
-0.133333333333333 0.133333333333333 -0.8 1
-0.2 0.2 -0.733333333333333 1
-0.266666666666667 0.266666666666667 -0.666666666666667 1
-0.333333333333333 0.333333333333333 -0.6 1
-0.4 0.4 -0.533333333333333 1
-0.4 0.4 -0.4 1
-0.466666666666667 0.466666666666667 -0.333333333333333 1
-0.533333333333333 0.533333333333333 -0.266666666666667 1
-0.6 0.6 -0.2 1
-0.666666666666667 0.666666666666667 -0.133333333333333 1
0.266666666666667 -0.266666666666667 0.933333333333333 1
0.2 -0.2 1 1
0.133333333333333 -0.133333333333333 -0.933333333333333 1
0.0666666666666669 -0.0666666666666669 -0.866666666666667 1
0 0 -0.8 1
-0.0666666666666667 0.0666666666666667 -0.733333333333333 1
-0.133333333333333 0.133333333333333 -0.666666666666667 1
-0.2 0.2 -0.6 1
-0.266666666666667 0.266666666666667 -0.533333333333333 1
-0.333333333333333 0.333333333333333 -0.466666666666667 1
-0.333333333333333 0.333333333333333 -0.333333333333333 1
-0.4 0.4 -0.266666666666667 1
-0.466666666666667 0.466666666666667 -0.2 1
-0.533333333333333 0.533333333333333 -0.133333333333333 1
-0.6 0.6 -0.0666666666666667 1
-0.666666666666667 0.666666666666667 0 1
0.266666666666667 -0.266666666666667 -0.933333333333333 1
0.2 -0.2 -0.866666666666667 1
0.133333333333333 -0.133333333333333 -0.8 1
0.0666666666666667 -0.0666666666666667 -0.733333333333333 1
0 0 -0.666666666666667 1
-0.0666666666666667 0.0666666666666667 -0.6 1
-0.133333333333333 0.133333333333333 -0.533333333333333 1
-0.2 0.2 -0.466666666666667 1
-0.266666666666667 0.266666666666667 -0.4 1
-0.266666666666667 0.266666666666667 -0.266666666666667 1
-0.333333333333333 0.333333333333333 -0.2 1
-0.4 0.4 -0.133333333333333 1
-0.466666666666667 0.466666666666667 -0.0666666666666667 1
-0.533333333333333 0.533333333333333 0 1
-0.6 0.6 0.0666666666666667 1
-0.666666666666667 0.666666666666667 0.133333333333333 1
0.266666666666667 -0.266666666666667 -0.8 1
0.2 -0.2 -0.733333333333333 1
0.133333333333333 -0.133333333333333 -0.666666666666667 1
0.0666666666666667 -0.0666666666666667 -0.6 1
0 0 -0.533333333333333 1
-0.0666666666666667 0.0666666666666667 -0.466666666666667 1
-0.133333333333333 0.133333333333333 -0.4 1
-0.2 0.2 -0.333333333333333 1
-0.2 0.2 -0.2 1
-0.266666666666667 0.266666666666667 -0.133333333333333 1
-0.333333333333333 0.333333333333333 -0.0666666666666667 1
-0.4 0.4 0 1
-0.466666666666667 0.466666666666667 0.0666666666666667 1
-0.533333333333333 0.533333333333333 0.133333333333333 1
-0.6 0.6 0.2 1
0.333333333333333 -0.333333333333333 -0.733333333333333 1
0.266666666666667 -0.266666666666667 -0.666666666666667 1
0.2 -0.2 -0.6 1
0.133333333333333 -0.133333333333333 -0.533333333333333 1
0.0666666666666667 -0.0666666666666667 -0.466666666666667 1
0 0 -0.4 1
-0.0666666666666667 0.0666666666666667 -0.333333333333333 1
-0.133333333333333 0.133333333333333 -0.266666666666667 1
-0.133333333333333 0.133333333333333 -0.133333333333333 1
-0.2 0.2 -0.0666666666666667 1
-0.266666666666667 0.266666666666667 0 1
-0.333333333333333 0.333333333333333 0.0666666666666667 1
-0.4 0.4 0.133333333333333 1
-0.466666666666667 0.466666666666667 0.2 1
-0.533333333333333 0.533333333333333 0.266666666666667 1
0.4 -0.4 -0.666666666666667 1
0.333333333333333 -0.333333333333333 -0.6 1
0.266666666666667 -0.266666666666667 -0.533333333333333 1
0.2 -0.2 -0.466666666666667 1
0.133333333333333 -0.133333333333333 -0.4 1
0.0666666666666667 -0.0666666666666667 -0.333333333333333 1
0 0 -0.266666666666667 1
-0.0666666666666667 0.0666666666666667 -0.2 1
-0.0666666666666667 0.0666666666666667 -0.0666666666666667 1
-0.133333333333333 0.133333333333333 0 1
-0.2 0.2 0.0666666666666667 1
-0.266666666666667 0.266666666666667 0.133333333333333 1
-0.333333333333333 0.333333333333333 0.2 1
-0.4 0.4 0.266666666666667 1
-0.466666666666667 0.466666666666667 0.333333333333333 1
-0.533333333333333 0.533333333333333 0.4 1
0.4 -0.4 -0.533333333333333 1
0.333333333333333 -0.333333333333333 -0.466666666666667 1
0.266666666666667 -0.266666666666667 -0.4 1
0.2 -0.2 -0.333333333333333 1
0.133333333333333 -0.133333333333333 -0.266666666666667 1
0.0666666666666667 -0.0666666666666667 -0.2 1
0 0 -0.133333333333333 1
0.0666666666666667 0.0666666666666667 -0.0666666666666667 1
0 0.133333333333333 0 1
-0.0666666666666667 0.2 0.0666666666666667 1
-0.133333333333333 0.266666666666667 0.133333333333333 1
-0.2 0.333333333333333 0.2 1
-0.266666666666667 0.4 0.266666666666667 1
-0.333333333333333 0.466666666666667 0.333333333333333 1
-0.4 0.533333333333333 0.4 1
0.533333333333333 -0.4 -0.533333333333333 1
0.466666666666667 -0.333333333333333 -0.466666666666667 1
0.4 -0.266666666666667 -0.4 1
0.333333333333333 -0.2 -0.333333333333333 1
0.266666666666667 -0.133333333333333 -0.266666666666667 1
0.2 -0.0666666666666667 -0.2 1
0.133333333333333 0 -0.133333333333333 1
0.133333333333333 0 0 1
0.0666666666666667 0.0666666666666667 0.0666666666666667 1
0 0.133333333333333 0.133333333333333 1
-0.0666666666666667 0.2 0.2 1
-0.133333333333333 0.266666666666667 0.266666666666667 1
-0.2 0.333333333333333 0.333333333333333 1
-0.266666666666667 0.4 0.4 1
-0.333333333333333 0.466666666666667 0.466666666666667 1
-0.4 0.533333333333333 0.533333333333333 1
0.533333333333333 -0.4 -0.4 1
0.466666666666667 -0.333333333333333 -0.333333333333333 1
0.4 -0.266666666666667 -0.266666666666667 1
0.333333333333333 -0.2 -0.2 1
0.266666666666667 -0.133333333333333 -0.133333333333333 1
0.2 -0.0666666666666667 -0.0666666666666667 1
0.2 -0.0666666666666667 0.0666666666666667 1
0.133333333333333 0 0.133333333333333 1
0.0666666666666667 0.0666666666666667 0.2 1
-1.38777878078145e-17 0.133333333333333 0.266666666666667 1
-0.0666666666666667 0.2 0.333333333333333 1
-0.133333333333333 0.266666666666667 0.4 1
-0.2 0.333333333333333 0.466666666666667 1
-0.266666666666667 0.4 0.533333333333333 1
-0.333333333333333 0.466666666666667 0.6 1
0.6 -0.466666666666667 -0.333333333333333 1
0.533333333333333 -0.4 -0.266666666666667 1
0.466666666666667 -0.333333333333333 -0.2 1
0.4 -0.266666666666667 -0.133333333333333 1
0.333333333333333 -0.2 -0.0666666666666667 1
0.266666666666667 -0.133333333333333 0 1
0.266666666666667 -0.133333333333333 0.133333333333333 1
0.2 -0.0666666666666667 0.2 1
0.133333333333333 -1.38777878078145e-17 0.266666666666667 1
0.0666666666666667 0.0666666666666667 0.333333333333333 1
1.38777878078145e-17 0.133333333333333 0.4 1
-0.0666666666666666 0.2 0.466666666666667 1
-0.133333333333333 0.266666666666667 0.533333333333333 1
-0.2 0.333333333333333 0.6 1
-0.266666666666667 0.4 0.666666666666667 1
0.666666666666667 -0.533333333333333 -0.266666666666667 1
0.6 -0.466666666666667 -0.2 1
0.533333333333333 -0.4 -0.133333333333333 1
0.466666666666667 -0.333333333333333 -0.0666666666666667 1
0.4 -0.266666666666667 0 1
0.333333333333333 -0.2 0.0666666666666667 1
0.333333333333333 -0.2 0.2 1
0.266666666666667 -0.133333333333333 0.266666666666667 1
0.2 -0.0666666666666667 0.333333333333333 1
0.133333333333333 1.38777878078145e-17 0.4 1
0.0666666666666667 0.0666666666666667 0.466666666666667 1
1.38777878078145e-17 0.133333333333333 0.533333333333333 1
-0.0666666666666667 0.2 0.6 1
-0.133333333333333 0.266666666666667 0.666666666666667 1
-0.2 0.333333333333333 0.733333333333333 1
-0.266666666666667 0.4 0.8 1
0.666666666666667 -0.533333333333333 -0.133333333333333 1
0.6 -0.466666666666667 -0.0666666666666667 1
0.533333333333333 -0.4 0 1
0.466666666666667 -0.333333333333333 0.0666666666666667 1
0.4 -0.266666666666667 0.133333333333333 1
0.4 -0.266666666666667 0.266666666666667 1
0.333333333333333 -0.2 0.333333333333333 1
0.266666666666667 -0.133333333333333 0.4 1
0.2 -0.0666666666666666 0.466666666666667 1
0.133333333333333 1.38777878078145e-17 0.533333333333333 1
0.0666666666666667 0.0666666666666667 0.6 1
-4.16333634234434e-17 0.133333333333333 0.666666666666667 1
-0.0666666666666667 0.2 0.733333333333333 1
-0.133333333333333 0.266666666666667 0.8 1
-0.2 0.333333333333333 0.866666666666667 1
0.733333333333333 -0.6 -0.0666666666666667 1
0.666666666666667 -0.533333333333333 0 1
0.6 -0.466666666666667 0.0666666666666667 1
0.533333333333333 -0.4 0.133333333333333 1
0.466666666666667 -0.333333333333333 0.2 1
0.466666666666667 -0.333333333333333 0.333333333333333 1
0.4 -0.266666666666667 0.4 1
0.333333333333333 -0.2 0.466666666666667 1
0.266666666666667 -0.133333333333333 0.533333333333333 1
0.2 -0.0666666666666667 0.6 1
0.133333333333333 -4.16333634234434e-17 0.666666666666667 1
0.0666666666666667 0.0666666666666667 0.733333333333333 1
1.38777878078145e-17 0.133333333333333 0.8 1
-0.0666666666666666 0.2 0.866666666666667 1
-0.133333333333333 0.266666666666667 0.933333333333333 1
0.8 -0.666666666666667 2.22044604925031e-16 1
0.733333333333333 -0.6 0.0666666666666667 1
0.666666666666667 -0.533333333333333 0.133333333333334 1
0.6 -0.466666666666667 0.2 1
0.533333333333333 -0.4 0.266666666666667 1
0.533333333333333 -0.4 0.4 1
0.466666666666667 -0.333333333333333 0.466666666666667 1
0.4 -0.266666666666667 0.533333333333333 1
0.333333333333333 -0.2 0.6 1
0.266666666666667 -0.133333333333333 0.666666666666667 1
0.2 -0.0666666666666667 0.733333333333333 1
0.133333333333333 1.38777878078145e-17 0.8 1
0.0666666666666667 0.0666666666666667 0.866666666666667 1
1.38777878078145e-17 0.133333333333333 0.933333333333333 1
-0.0666666666666668 0.2 -1 1
-0.133333333333333 0.266666666666667 -0.933333333333333 1
-0.2 0.333333333333333 -0.866666666666666 1
-0.266666666666667 0.4 -0.8 1
0.666666666666667 -0.533333333333333 0.266666666666667 1
0.6 -0.466666666666667 0.333333333333333 1
-0.4 0.533333333333333 -0.533333333333333 1
0.533333333333333 -0.4 0.533333333333333 1
0.466666666666667 -0.333333333333333 0.6 1
0.4 -0.266666666666667 0.666666666666667 1
0.333333333333333 -0.2 0.733333333333333 1
0.266666666666667 -0.133333333333333 0.8 1
0.2 -0.0666666666666666 0.866666666666667 1
0.133333333333333 1.38777878078145e-17 0.933333333333333 1
0.0666666666666667 0.0666666666666667 1 1
-1.11022302462516e-16 0.133333333333333 -0.933333333333333 1
-0.0666666666666668 0.2 -0.866666666666666 1
-0.133333333333333 0.266666666666667 -0.8 1
-0.2 0.333333333333333 -0.733333333333333 1
-0.266666666666667 0.4 -0.666666666666667 1
-0.333333333333333 0.466666666666667 -0.6 1
-0.333333333333333 0.466666666666667 -0.466666666666667 1
-0.4 0.533333333333333 -0.4 1
-0.466666666666667 0.6 -0.333333333333333 1
-0.533333333333333 0.666666666666667 -0.266666666666667 1
0.4 -0.266666666666667 0.8 1
0.333333333333333 -0.2 0.866666666666667 1
0.266666666666667 -0.133333333333333 0.933333333333333 1
0.2 -0.0666666666666667 -1 1
0.133333333333333 0 -0.933333333333333 1
0.0666666666666667 0.0666666666666667 -0.866666666666666 1
0 0.133333333333333 -0.8 1
-0.0666666666666667 0.2 -0.733333333333333 1
-0.133333333333333 0.266666666666667 -0.666666666666667 1
-0.2 0.333333333333333 -0.6 1
-0.266666666666667 0.4 -0.533333333333333 1
-0.266666666666667 0.4 -0.4 1
-0.333333333333333 0.466666666666667 -0.333333333333333 1
-0.4 0.533333333333333 -0.266666666666667 1
-0.466666666666667 0.6 -0.2 1
-0.533333333333333 0.666666666666667 -0.133333333333333 1
-0.6 0.733333333333333 -0.0666666666666667 1
-0.666666666666667 0.8 2.22044604925031e-16 1
0.266666666666667 -0.133333333333333 -0.933333333333333 1
0.2 -0.0666666666666667 -0.866666666666666 1
0.133333333333333 0 -0.8 1
0.0666666666666667 0.0666666666666667 -0.733333333333333 1
0 0.133333333333333 -0.666666666666667 1
-0.0666666666666667 0.2 -0.6 1
-0.133333333333333 0.266666666666667 -0.533333333333333 1
-0.2 0.333333333333333 -0.466666666666667 1
-0.2 0.333333333333333 -0.333333333333333 1
-0.266666666666667 0.4 -0.266666666666667 1
-0.333333333333333 0.466666666666667 -0.2 1
-0.4 0.533333333333333 -0.133333333333333 1
-0.466666666666667 0.6 -0.0666666666666667 1
-0.533333333333333 0.666666666666667 0 1
-0.6 0.733333333333333 0.0666666666666667 1
0.333333333333333 -0.2 -0.866666666666666 1
0.266666666666667 -0.133333333333333 -0.8 1
0.2 -0.0666666666666667 -0.733333333333333 1
0.133333333333333 0 -0.666666666666667 1
0.0666666666666667 0.0666666666666667 -0.6 1
0 0.133333333333333 -0.533333333333333 1
-0.0666666666666667 0.2 -0.466666666666667 1
-0.133333333333333 0.266666666666667 -0.4 1
-0.133333333333333 0.266666666666667 -0.266666666666667 1
-0.2 0.333333333333333 -0.2 1
-0.266666666666667 0.4 -0.133333333333333 1
-0.333333333333333 0.466666666666667 -0.0666666666666667 1
-0.4 0.533333333333333 0 1
-0.466666666666667 0.6 0.0666666666666667 1
-0.533333333333333 0.666666666666667 0.133333333333334 1
0.4 -0.266666666666667 -0.8 1
0.333333333333333 -0.2 -0.733333333333333 1
0.266666666666667 -0.133333333333333 -0.666666666666667 1
0.2 -0.0666666666666667 -0.6 1
0.133333333333333 0 -0.533333333333333 1
0.0666666666666667 0.0666666666666667 -0.466666666666667 1
0 0.133333333333333 -0.4 1
-0.0666666666666667 0.2 -0.333333333333333 1
-0.0666666666666667 0.2 -0.2 1
-0.133333333333333 0.266666666666667 -0.133333333333333 1
-0.2 0.333333333333333 -0.0666666666666667 1
-0.266666666666667 0.4 0 1
-0.333333333333333 0.466666666666667 0.0666666666666667 1
-0.4 0.533333333333333 0.133333333333333 1
-0.466666666666667 0.6 0.2 1
-0.533333333333333 0.666666666666667 0.266666666666667 1
0.4 -0.266666666666667 -0.666666666666667 1
0.333333333333333 -0.2 -0.6 1
0.266666666666667 -0.133333333333333 -0.533333333333333 1
0.2 -0.0666666666666667 -0.466666666666667 1
0.133333333333333 0 -0.4 1
0.0666666666666667 0.0666666666666667 -0.333333333333333 1
0 0.133333333333333 -0.266666666666667 1
0 0.133333333333333 -0.133333333333333 1
-0.0666666666666667 0.2 -0.0666666666666667 1
-0.133333333333333 0.266666666666667 0 1
-0.2 0.333333333333333 0.0666666666666667 1
-0.266666666666667 0.4 0.133333333333333 1
-0.333333333333333 0.466666666666667 0.2 1
-0.4 0.533333333333333 0.266666666666667 1
-0.466666666666667 0.6 0.333333333333333 1
0.466666666666667 -0.333333333333333 -0.6 1
0.4 -0.266666666666667 -0.533333333333333 1
0.333333333333333 -0.2 -0.466666666666667 1
0.266666666666667 -0.133333333333333 -0.4 1
0.2 -0.0666666666666667 -0.333333333333333 1
0.133333333333333 0 -0.266666666666667 1
0.0666666666666667 0.0666666666666667 -0.2 1
0.133333333333333 0.133333333333333 -0.133333333333333 1
0.0666666666666667 0.2 -0.0666666666666667 1
0 0.266666666666667 0 1
-0.0666666666666667 0.333333333333333 0.0666666666666667 1
-0.133333333333333 0.4 0.133333333333333 1
-0.2 0.466666666666667 0.2 1
-0.266666666666667 0.533333333333333 0.266666666666667 1
-0.333333333333333 0.6 0.333333333333333 1
-0.4 0.666666666666667 0.4 1
0.533333333333333 -0.266666666666667 -0.533333333333333 1
0.466666666666667 -0.2 -0.466666666666667 1
0.4 -0.133333333333333 -0.4 1
0.333333333333333 -0.0666666666666667 -0.333333333333333 1
0.266666666666667 0 -0.266666666666667 1
0.2 0.0666666666666667 -0.2 1
0.2 0.0666666666666667 -0.0666666666666667 1
0.133333333333333 0.133333333333333 0 1
0.0666666666666667 0.2 0.0666666666666667 1
-2.77555756156289e-17 0.266666666666667 0.133333333333333 1
-0.0666666666666667 0.333333333333333 0.2 1
-0.133333333333333 0.4 0.266666666666667 1
-0.2 0.466666666666667 0.333333333333333 1
-0.266666666666667 0.533333333333333 0.4 1
-0.333333333333333 0.6 0.466666666666667 1
0.6 -0.333333333333333 -0.466666666666667 1
0.533333333333333 -0.266666666666667 -0.4 1
0.466666666666667 -0.2 -0.333333333333333 1
0.4 -0.133333333333333 -0.266666666666667 1
0.333333333333333 -0.0666666666666667 -0.2 1
0.266666666666667 0 -0.133333333333333 1
0.266666666666667 0 0 1
0.2 0.0666666666666667 0.0666666666666667 1
0.133333333333333 0.133333333333333 0.133333333333333 1
0.0666666666666667 0.2 0.2 1
0 0.266666666666667 0.266666666666667 1
-0.0666666666666667 0.333333333333333 0.333333333333333 1
-0.133333333333333 0.4 0.4 1
-0.2 0.466666666666667 0.466666666666667 1
-0.266666666666667 0.533333333333333 0.533333333333333 1
0.666666666666667 -0.4 -0.4 1
0.6 -0.333333333333333 -0.333333333333333 1
0.533333333333333 -0.266666666666667 -0.266666666666667 1
0.466666666666667 -0.2 -0.2 1
0.4 -0.133333333333333 -0.133333333333333 1
0.333333333333333 -0.0666666666666667 -0.0666666666666667 1
0.333333333333333 -0.0666666666666667 0.0666666666666667 1
0.266666666666667 -2.77555756156289e-17 0.133333333333333 1
0.2 0.0666666666666667 0.2 1
0.133333333333333 0.133333333333333 0.266666666666667 1
0.0666666666666667 0.2 0.333333333333333 1
2.77555756156289e-17 0.266666666666667 0.4 1
-0.0666666666666667 0.333333333333333 0.466666666666667 1
-0.133333333333333 0.4 0.533333333333333 1
-0.2 0.466666666666667 0.6 1
-0.266666666666667 0.533333333333333 0.666666666666667 1
0.666666666666667 -0.4 -0.266666666666667 1
0.6 -0.333333333333333 -0.2 1
0.533333333333333 -0.266666666666667 -0.133333333333333 1
0.466666666666667 -0.2 -0.0666666666666667 1
0.4 -0.133333333333333 0 1
0.4 -0.133333333333333 0.133333333333333 1
0.333333333333333 -0.0666666666666667 0.2 1
0.266666666666667 0 0.266666666666667 1
0.2 0.0666666666666667 0.333333333333333 1
0.133333333333333 0.133333333333333 0.4 1
0.0666666666666667 0.2 0.466666666666667 1
-2.77555756156289e-17 0.266666666666667 0.533333333333333 1
-0.0666666666666667 0.333333333333333 0.6 1
-0.133333333333333 0.4 0.666666666666667 1
-0.2 0.466666666666667 0.733333333333333 1
0.733333333333333 -0.466666666666667 -0.2 1
0.666666666666667 -0.4 -0.133333333333333 1
0.6 -0.333333333333333 -0.0666666666666667 1
0.533333333333333 -0.266666666666667 0 1
0.466666666666667 -0.2 0.0666666666666667 1
0.466666666666667 -0.2 0.2 1
0.4 -0.133333333333333 0.266666666666667 1
0.333333333333333 -0.0666666666666667 0.333333333333333 1
0.266666666666667 2.77555756156289e-17 0.4 1
0.2 0.0666666666666667 0.466666666666667 1
0.133333333333333 0.133333333333333 0.533333333333333 1
0.0666666666666666 0.2 0.6 1
-2.77555756156289e-17 0.266666666666667 0.666666666666667 1
-0.0666666666666667 0.333333333333333 0.733333333333333 1
-0.133333333333333 0.4 0.8 1
0.8 -0.533333333333333 -0.133333333333333 1
0.733333333333333 -0.466666666666667 -0.0666666666666667 1
0.666666666666667 -0.4 0 1
0.6 -0.333333333333333 0.0666666666666667 1
0.533333333333333 -0.266666666666667 0.133333333333333 1
0.533333333333333 -0.266666666666667 0.266666666666667 1
0.466666666666667 -0.2 0.333333333333333 1
0.4 -0.133333333333333 0.4 1
0.333333333333333 -0.0666666666666667 0.466666666666667 1
0.266666666666667 -2.77555756156289e-17 0.533333333333333 1
0.2 0.0666666666666666 0.6 1
0.133333333333333 0.133333333333333 0.666666666666667 1
0.0666666666666667 0.2 0.733333333333333 1
2.77555756156289e-17 0.266666666666667 0.8 1
-0.0666666666666667 0.333333333333333 0.866666666666667 1
-0.133333333333333 0.4 0.933333333333334 1
0.8 -0.533333333333333 0 1
0.733333333333333 -0.466666666666667 0.0666666666666669 1
0.666666666666667 -0.4 0.133333333333333 1
0.6 -0.333333333333333 0.2 1
0.6 -0.333333333333333 0.333333333333333 1
0.533333333333333 -0.266666666666667 0.4 1
0.466666666666667 -0.2 0.466666666666667 1
0.4 -0.133333333333333 0.533333333333333 1
0.333333333333333 -0.0666666666666667 0.6 1
0.266666666666667 -2.77555756156289e-17 0.666666666666667 1
0.2 0.0666666666666667 0.733333333333333 1
0.133333333333333 0.133333333333333 0.8 1
0.0666666666666667 0.2 0.866666666666667 1
-8.32667268468867e-17 0.266666666666667 0.933333333333334 1
-0.0666666666666667 0.333333333333333 1 1
-0.133333333333333 0.4 -0.933333333333333 1
0.8 -0.533333333333333 0.133333333333333 1
0.733333333333333 -0.466666666666667 0.2 1
0.666666666666667 -0.4 0.266666666666667 1
0.666666666666667 -0.4 0.4 1
0.6 -0.333333333333333 0.466666666666667 1
0.533333333333333 -0.266666666666667 0.533333333333333 1
0.466666666666667 -0.2 0.6 1
0.4 -0.133333333333333 0.666666666666667 1
0.333333333333333 -0.0666666666666667 0.733333333333333 1
0.266666666666667 2.77555756156289e-17 0.8 1
0.2 0.0666666666666667 0.866666666666667 1
0.133333333333333 0.133333333333333 0.933333333333333 1
0.0666666666666666 0.2 1 1
-1.11022302462516e-16 0.266666666666667 -0.933333333333333 1
-0.0666666666666668 0.333333333333333 -0.866666666666667 1
-0.133333333333333 0.4 -0.8 1
-0.2 0.466666666666667 -0.733333333333333 1
-0.266666666666667 0.533333333333333 -0.666666666666667 1
-0.266666666666667 0.533333333333333 -0.533333333333333 1
-0.333333333333333 0.6 -0.466666666666667 1
-0.4 0.666666666666667 -0.4 1
0.533333333333333 -0.266666666666667 0.666666666666667 1
0.466666666666667 -0.2 0.733333333333333 1
0.4 -0.133333333333333 0.8 1
0.333333333333333 -0.0666666666666667 0.866666666666667 1
0.266666666666667 -8.32667268468867e-17 0.933333333333334 1
0.2 0.0666666666666666 1 1
0.133333333333333 0.133333333333333 -0.933333333333333 1
0.0666666666666667 0.2 -0.866666666666666 1
0 0.266666666666667 -0.8 1
-0.0666666666666667 0.333333333333333 -0.733333333333333 1
-0.133333333333333 0.4 -0.666666666666667 1
-0.2 0.466666666666667 -0.6 1
-0.2 0.466666666666667 -0.466666666666667 1
-0.266666666666667 0.533333333333333 -0.4 1
-0.333333333333333 0.6 -0.333333333333333 1
-0.4 0.666666666666667 -0.266666666666667 1
-0.466666666666667 0.733333333333333 -0.2 1
-0.533333333333333 0.8 -0.133333333333333 1
0.4 -0.133333333333333 0.933333333333334 1
0.333333333333333 -0.0666666666666667 1 1
0.266666666666667 0 -0.933333333333333 1
0.2 0.0666666666666667 -0.866666666666666 1
0.133333333333333 0.133333333333333 -0.8 1
0.0666666666666667 0.2 -0.733333333333333 1
0 0.266666666666667 -0.666666666666667 1
-0.0666666666666667 0.333333333333333 -0.6 1
-0.133333333333333 0.4 -0.533333333333333 1
-0.133333333333333 0.4 -0.4 1
-0.2 0.466666666666667 -0.333333333333333 1
-0.266666666666667 0.533333333333333 -0.266666666666667 1
-0.333333333333333 0.6 -0.2 1
-0.4 0.666666666666667 -0.133333333333333 1
-0.466666666666667 0.733333333333333 -0.0666666666666667 1
-0.533333333333333 0.8 0 1
0.4 -0.133333333333333 -0.933333333333333 1
0.333333333333333 -0.0666666666666667 -0.866666666666667 1
0.266666666666667 0 -0.8 1
0.2 0.0666666666666667 -0.733333333333333 1
0.133333333333333 0.133333333333333 -0.666666666666667 1
0.0666666666666667 0.2 -0.6 1
0 0.266666666666667 -0.533333333333333 1
-0.0666666666666667 0.333333333333333 -0.466666666666667 1
-0.0666666666666667 0.333333333333333 -0.333333333333333 1
-0.133333333333333 0.4 -0.266666666666667 1
-0.2 0.466666666666667 -0.2 1
-0.266666666666667 0.533333333333333 -0.133333333333333 1
-0.333333333333333 0.6 -0.0666666666666667 1
-0.4 0.666666666666667 0 1
-0.466666666666667 0.733333333333333 0.0666666666666669 1
-0.533333333333333 0.8 0.133333333333333 1
0.4 -0.133333333333333 -0.8 1
0.333333333333333 -0.0666666666666667 -0.733333333333333 1
0.266666666666667 0 -0.666666666666667 1
0.2 0.0666666666666667 -0.6 1
0.133333333333333 0.133333333333333 -0.533333333333333 1
0.0666666666666667 0.2 -0.466666666666667 1
0 0.266666666666667 -0.4 1
0 0.266666666666667 -0.266666666666667 1
-0.0666666666666667 0.333333333333333 -0.2 1
-0.133333333333333 0.4 -0.133333333333333 1
-0.2 0.466666666666667 -0.0666666666666667 1
-0.266666666666667 0.533333333333333 0 1
-0.333333333333333 0.6 0.0666666666666667 1
-0.4 0.666666666666667 0.133333333333333 1
-0.466666666666667 0.733333333333333 0.2 1
0.466666666666667 -0.2 -0.733333333333333 1
0.4 -0.133333333333333 -0.666666666666667 1
0.333333333333333 -0.0666666666666667 -0.6 1
0.266666666666667 0 -0.533333333333333 1
0.2 0.0666666666666667 -0.466666666666667 1
0.133333333333333 0.133333333333333 -0.4 1
0.0666666666666667 0.2 -0.333333333333333 1
0.0666666666666667 0.2 -0.2 1
0 0.266666666666667 -0.133333333333333 1
-0.0666666666666667 0.333333333333333 -0.0666666666666667 1
-0.133333333333333 0.4 0 1
-0.2 0.466666666666667 0.0666666666666667 1