15625
15625
0 0 0 1
-0.04 0.04 0.04 1
-0.08 0.08 0.08 1
-0.12 0.12 0.12 1
-0.16 0.16 0.16 1
-0.2 0.2 0.2 1
-0.24 0.24 0.24 1
-0.28 0.28 0.28 1
-0.32 0.32 0.32 1
-0.36 0.36 0.36 1
-0.4 0.4 0.4 1
-0.44 0.44 0.44 1
-0.48 0.48 0.48 1
0.48 -0.48 -0.48 1
0.44 -0.44 -0.44 1
0.4 -0.4 -0.4 1
0.36 -0.36 -0.36 1
0.32 -0.32 -0.32 1
0.28 -0.28 -0.28 1
0.24 -0.24 -0.24 1
0.2 -0.2 -0.2 1
0.16 -0.16 -0.16 1
0.12 -0.12 -0.12 1
0.0800000000000001 -0.0800000000000001 -0.0800000000000001 1
0.04 -0.04 -0.04 1
0.04 -0.04 0.04 1
0 0 0.08 1
-0.04 0.04 0.12 1
-0.08 0.08 0.16 1
-0.12 0.12 0.2 1
-0.16 0.16 0.24 1
-0.2 0.2 0.28 1
-0.24 0.24 0.32 1
-0.28 0.28 0.36 1
-0.32 0.32 0.4 1
-0.36 0.36 0.44 1
-0.4 0.4 0.48 1
-0.44 0.44 0.52 1
0.52 -0.52 -0.44 1
0.48 -0.48 -0.4 1
0.44 -0.44 -0.36 1
0.4 -0.4 -0.32 1
0.36 -0.36 -0.28 1
0.32 -0.32 -0.24 1
0.28 -0.28 -0.2 1
0.24 -0.24 -0.16 1
0.2 -0.2 -0.12 1
0.16 -0.16 -0.08 1
0.12 -0.12 -0.04 1
0.0800000000000001 -0.0800000000000001 0 1
0.08 -0.08 0.08 1
0.04 -0.04 0.12 1
0 0 0.16 1
-0.04 0.04 0.2 1
-0.08 0.08 0.24 1
-0.12 0.12 0.28 1
-0.16 0.16 0.32 1
-0.2 0.2 0.36 1
-0.24 0.24 0.4 1
-0.28 0.28 0.44 1
-0.32 0.32 0.48 1
-0.36 0.36 0.52 1
-0.4 0.4 0.56 1
-0.44 0.44 0.6 1
0.52 -0.52 -0.36 1
0.48 -0.48 -0.32 1
0.44 -0.44 -0.28 1
0.4 -0.4 -0.24 1
0.36 -0.36 -0.2 1
0.32 -0.32 -0.16 1
0.28 -0.28 -0.12 1
0.24 -0.24 -0.0800000000000001 1
0.2 -0.2 -0.04 1
0.16 -0.16 -1.11022302462516e-16 1
0.12 -0.12 0.04 1
0.12 -0.12 0.12 1
0.08 -0.08 0.16 1
0.04 -0.04 0.2 1
0 0 0.24 1
-0.04 0.04 0.28 1
-0.08 0.08 0.32 1
-0.12 0.12 0.36 1
-0.16 0.16 0.4 1
-0.2 0.2 0.44 1
-0.24 0.24 0.48 1
-0.28 0.28 0.52 1
-0.32 0.32 0.56 1
-0.36 0.36 0.6 1
-0.4 0.4 0.64 1
0.56 -0.56 -0.32 1
0.52 -0.52 -0.28 1
0.48 -0.48 -0.24 1
0.44 -0.44 -0.2 1
0.4 -0.4 -0.16 1
0.36 -0.36 -0.12 1
0.32 -0.32 -0.0800000000000001 1
0.28 -0.28 -0.04 1
0.24 -0.24 0 1
0.2 -0.2 0.04 1
0.16 -0.16 0.0800000000000001 1
0.16 -0.16 0.16 1
0.12 -0.12 0.2 1
0.08 -0.08 0.24 1
0.04 -0.04 0.28 1
0 0 0.32 1
-0.04 0.04 0.36 1
-0.08 0.08 0.4 1
-0.12 0.12 0.44 1
-0.16 0.16 0.48 1
-0.2 0.2 0.52 1
-0.24 0.24 0.56 1
-0.28 0.28 0.6 1
-0.32 0.32 0.64 1
-0.36 0.36 0.68 1
0.6 -0.6 -0.28 1
0.56 -0.56 -0.24 1
0.52 -0.52 -0.2 1
0.48 -0.48 -0.16 1
0.44 -0.44 -0.12 1
0.4 -0.4 -0.08 1
0.36 -0.36 -0.04 1
0.32 -0.32 0 1
0.28 -0.28 0.04 1
0.24 -0.24 0.0799999999999998 1
0.2 -0.2 0.12 1
0.2 -0.2 0.2 1
0.16 -0.16 0.24 1
0.12 -0.12 0.28 1
0.08 -0.08 0.32 1
0.04 -0.04 0.36 1
0 0 0.4 1
-0.04 0.04 0.44 1
-0.08 0.08 0.48 1
-0.12 0.12 0.52 1
-0.16 0.16 0.56 1
-0.2 0.2 0.6 1
-0.24 0.24 0.64 1
-0.28 0.28 0.68 1
-0.32 0.32 0.72 1
-0.36 0.36 0.76 1
0.6 -0.6 -0.2 1
0.56 -0.56 -0.16 1
0.52 -0.52 -0.12 1
0.48 -0.48 -0.0800000000000001 1
0.44 -0.44 -0.04 1
0.4 -0.4 0 1
0.36 -0.36 0.04 1
0.32 -0.32 0.0800000000000001 1
0.28 -0.28 0.12 1
0.24 -0.24 0.16 1
0.24 -0.24 0.24 1
0.2 -0.2 0.28 1
0.16 -0.16 0.32 1
0.12 -0.12 0.36 1
0.08 -0.08 0.4 1
0.04 -0.04 0.44 1
0 0 0.48 1
-0.04 0.04 0.52 1
-0.08 0.08 0.56 1
-0.12 0.12 0.6 1
-0.16 0.16 0.64 1
-0.2 0.2 0.68 1
-0.24 0.24 0.72 1
-0.28 0.28 0.76 1
-0.32 0.32 0.8 1
0.64 -0.64 -0.16 1
0.6 -0.6 -0.12 1
0.56 -0.56 -0.0800000000000001 1
0.52 -0.52 -0.04 1
0.48 -0.48 0 1
0.44 -0.44 0.04 1
0.4 -0.4 0.0800000000000001 1
0.36 -0.36 0.12 1
0.32 -0.32 0.16 1
0.28 -0.28 0.2 1
0.28 -0.28 0.28 1
0.24 -0.24 0.32 1
0.2 -0.2 0.36 1
0.16 -0.16 0.4 1
0.12 -0.12 0.44 1
0.08 -0.08 0.48 1
0.04 -0.04 0.52 1
0 0 0.56 1
-0.04 0.04 0.6 1
-0.08 0.08 0.64 1
-0.12 0.12 0.68 1
-0.16 0.16 0.72 1
-0.2 0.2 0.76 1
-0.24 0.24 0.8 1
-0.28 0.28 0.84 1
0.68 -0.68 -0.12 1
0.64 -0.64 -0.0800000000000001 1
0.6 -0.6 -0.04 1
0.56 -0.56 0 1
0.52 -0.52 0.04 1
0.48 -0.48 0.0800000000000001 1
0.44 -0.44 0.12 1
0.4 -0.4 0.16 1
0.36 -0.36 0.2 1
0.32 -0.32 0.24 1
0.32 -0.32 0.32 1
0.28 -0.28 0.36 1
0.24 -0.24 0.4 1
0.2 -0.2 0.44 1
0.16 -0.16 0.48 1
0.12 -0.12 0.52 1
0.08 -0.08 0.56 1
0.04 -0.04 0.6 1
0 0 0.64 1
-0.04 0.04 0.68 1
-0.08 0.08 0.72 1
-0.12 0.12 0.76 1
-0.16 0.16 0.8 1
-0.2 0.2 0.84 1
-0.24 0.24 0.88 1
-0.28 0.28 0.92 1
0.68 -0.68 -0.04 1
0.64 -0.64 0 1
0.6 -0.6 0.04 1
0.56 -0.56 0.0800000000000001 1
0.52 -0.52 0.12 1
0.48 -0.48 0.16 1
0.44 -0.44 0.2 1
0.4 -0.4 0.24 1
0.36 -0.36 0.28 1
0.36 -0.36 0.36 1
0.32 -0.32 0.4 1
0.28 -0.28 0.44 1
0.24 -0.24 0.48 1
0.2 -0.2 0.52 1
0.16 -0.16 0.56 1
0.12 -0.12 0.6 1
0.08 -0.08 0.64 1
0.04 -0.04 0.68 1
0 0 0.72 1
-0.04 0.04 0.76 1
-0.08 0.08 0.8 1
-0.12 0.12 0.84 1
-0.16 0.16 0.88 1
-0.2 0.2 0.92 1
-0.24 0.24 0.96 1
0.72 -0.72 -1.11022302462516e-16 1
0.68 -0.68 0.04 1
0.64 -0.64 0.0800000000000001 1
0.6 -0.6 0.12 1
0.56 -0.56 0.16 1
0.52 -0.52 0.2 1
0.48 -0.48 0.24 1
0.44 -0.44 0.28 1
0.4 -0.4 0.32 1
0.4 -0.4 0.4 1
0.36 -0.36 0.44 1
0.32 -0.32 0.48 1
0.28 -0.28 0.52 1
0.24 -0.24 0.56 1
0.2 -0.2 0.6 1
0.16 -0.16 0.64 1
0.12 -0.12 0.68 1
0.08 -0.08 0.72 1
0.04 -0.04 0.76 1
0 0 0.8 1
-0.04 0.04 0.84 1
-0.08 0.08 0.88 1
-0.12 0.12 0.92 1
-0.16 0.16 0.96 1
-0.2 0.2 1 1
-0.24 0.24 -0.96 1
-0.28 0.28 -0.92 1
0.68 -0.68 0.12 1
0.64 -0.64 0.16 1
0.6 -0.6 0.2 1
0.56 -0.56 0.24 1
0.52 -0.52 0.28 1
0.48 -0.48 0.32 1
0.44 -0.44 0.36 1
0.44 -0.44 0.44 1
0.4 -0.4 0.48 1
0.36 -0.36 0.52 1
0.32 -0.32 0.56 1
0.28 -0.28 0.6 1
0.24 -0.24 0.64 1
0.2 -0.2 0.68 1
0.16 -0.16 0.72 1
0.12 -0.12 0.76 1
0.08 -0.08 0.8 1
0.04 -0.04 0.84 1
0 0 0.88 1
-0.04 0.04 0.92 1
-0.08 0.08 0.96 1
-0.12 0.12 1 1
-0.16 0.16 -0.96 1
-0.2 0.2 -0.92 1
-0.24 0.24 -0.88 1
-0.28 0.28 -0.84 1
-0.32 0.32 -0.8 1
-0.36 0.36 -0.76 1
0.6 -0.6 0.28 1
0.56 -0.56 0.32 1
0.52 -0.52 0.36 1
0.48 -0.48 0.4 1
0.48 -0.48 0.48 1
0.44 -0.44 0.52 1
0.4 -0.4 0.56 1
0.36 -0.36 0.6 1
0.32 -0.32 0.64 1
0.28 -0.28 0.68 1
0.24 -0.24 0.72 1
0.2 -0.2 0.76 1
0.16 -0.16 0.8 1
0.12 -0.12 0.84 1
0.08 -0.08 0.88 1
0.04 -0.04 0.92 1
0 0 0.96 1
-0.04 0.04 1 1
-0.08 0.08 -0.96 1
-0.12 0.12 -0.92 1
-0.16 0.16 -0.88 1
-0.2 0.2 -0.84 1
-0.24 0.24 -0.8 1
-0.28 0.28 -0.76 1
-0.32 0.32 -0.72 1
-0.36 0.36 -0.68 1
-0.4 0.4 -0.64 1
-0.44 0.44 -0.6 1
0.52 -0.52 0.44 1
-0.48 0.48 -0.48 1
-0.52 0.52 -0.44 1
0.44 -0.44 0.6 1
0.4 -0.4 0.64 1
0.36 -0.36 0.68 1
0.32 -0.32 0.72 1
0.28 -0.28 0.76 1
0.24 -0.24 0.8 1
0.2 -0.2 0.84 1
0.16 -0.16 0.88 1
0.12 -0.12 0.92 1
0.08 -0.08 0.96 1
0.04 -0.04 1 1
0 0 -0.96 1
-0.0399999999999999 0.0399999999999999 -0.92 1
-0.08 0.08 -0.88 1
-0.12 0.12 -0.84 1
-0.16 0.16 -0.8 1
-0.2 0.2 -0.76 1
-0.24 0.24 -0.72 1
-0.28 0.28 -0.68 1
-0.32 0.32 -0.64 1
-0.36 0.36 -0.6 1
-0.4 0.4 -0.56 1
-0.44 0.44 -0.52 1
-0.44 0.44 -0.44 1
-0.48 0.48 -0.4 1
-0.52 0.52 -0.36 1
-0.56 0.56 -0.32 1
-0.6 0.6 -0.28 1
0.36 -0.36 0.76 1
0.32 -0.32 0.8 1
0.28 -0.28 0.84 1
0.24 -0.24 0.88 1
0.2 -0.2 0.92 1
0.16 -0.16 0.96 1
0.12 -0.12 1 1
0.0800000000000001 -0.0800000000000001 -0.96 1
0.04 -0.04 -0.92 1
0 0 -0.88 1
-0.04 0.04 -0.84 1
-0.08 0.08 -0.8 1
-0.12 0.12 -0.76 1
-0.16 0.16 -0.72 1
-0.2 0.2 -0.68 1
-0.24 0.24 -0.64 1
-0.28 0.28 -0.6 1
-0.32 0.32 -0.56 1
-0.36 0.36 -0.52 1
-0.4 0.4 -0.48 1
-0.4 0.4 -0.4 1
-0.44 0.44 -0.36 1
-0.48 0.48 -0.32 1
-0.52 0.52 -0.28 1
-0.56 0.56 -0.24 1
-0.6 0.6 -0.2 1
-0.64 0.64 -0.16 1
-0.68 0.68 -0.12 1
0.28 -0.28 0.92 1
0.24 -0.24 0.96 1
0.2 -0.2 1 1
0.16 -0.16 -0.96 1
0.12 -0.12 -0.92 1
0.0800000000000001 -0.0800000000000001 -0.88 1
0.04 -0.04 -0.84 1
0 0 -0.8 1
-0.0399999999999999 0.0399999999999999 -0.76 1
-0.08 0.08 -0.72 1
-0.12 0.12 -0.68 1
-0.16 0.16 -0.64 1
-0.2 0.2 -0.6 1
-0.24 0.24 -0.56 1
-0.28 0.28 -0.52 1
-0.32 0.32 -0.48 1
-0.36 0.36 -0.44 1
-0.36 0.36 -0.36 1
-0.4 0.4 -0.32 1
-0.44 0.44 -0.28 1
-0.48 0.48 -0.24 1
-0.52 0.52 -0.2 1
-0.56 0.56 -0.16 1
-0.6 0.6 -0.12 1
-0.64 0.64 -0.0800000000000001 1
-0.68 0.68 -0.04 1
-0.72 0.72 -1.11022302462516e-16 1
0.24 -0.24 -0.96 1
0.2 -0.2 -0.92 1
0.16 -0.16 -0.88 1
0.12 -0.12 -0.84 1
0.0800000000000001 -0.0800000000000001 -0.8 1
0.04 -0.04 -0.76 1
0 0 -0.72 1
-0.04 0.04 -0.68 1
-0.0800000000000001 0.0800000000000001 -0.64 1
-0.12 0.12 -0.6 1
-0.16 0.16 -0.56 1
-0.2 0.2 -0.52 1
-0.24 0.24 -0.48 1
-0.28 0.28 -0.44 1
-0.32 0.32 -0.4 1
-0.32 0.32 -0.32 1
-0.36 0.36 -0.28 1
-0.4 0.4 -0.24 1
-0.44 0.44 -0.2 1
-0.48 0.48 -0.16 1
-0.52 0.52 -0.12 1
-0.56 0.56 -0.0800000000000001 1
-0.6 0.6 -0.04 1
-0.64 0.64 0 1
-0.68 0.68 0.04 1
0.28 -0.28 -0.92 1
0.24 -0.24 -0.88 1
0.2 -0.2 -0.84 1
0.16 -0.16 -0.8 1
0.12 -0.12 -0.76 1
0.0800000000000001 -0.0800000000000001 -0.72 1
0.04 -0.04 -0.68 1
0 0 -0.64 1
-0.04 0.04 -0.6 1
-0.0800000000000001 0.0800000000000001 -0.56 1
-0.12 0.12 -0.52 1
-0.16 0.16 -0.48 1
-0.2 0.2 -0.44 1
-0.24 0.24 -0.4 1
-0.28 0.28 -0.36 1
-0.28 0.28 -0.28 1
-0.32 0.32 -0.24 1
-0.36 0.36 -0.2 1
-0.4 0.4 -0.16 1
-0.44 0.44 -0.12 1
-0.48 0.48 -0.0800000000000001 1
-0.52 0.52 -0.04 1
-0.56 0.56 0 1
-0.6 0.6 0.04 1
-0.64 0.64 0.0800000000000001 1
-0.68 0.68 0.12 1
0.28 -0.28 -0.84 1
0.24 -0.24 -0.8 1
0.2 -0.2 -0.76 1
0.16 -0.16 -0.72 1
0.12 -0.12 -0.68 1
0.0800000000000001 -0.0800000000000001 -0.64 1
0.04 -0.04 -0.6 1
0 0 -0.56 1
-0.04 0.04 -0.52 1
-0.08 0.08 -0.48 1
-0.12 0.12 -0.44 1
-0.16 0.16 -0.4 1
-0.2 0.2 -0.36 1
-0.24 0.24 -0.32 1
-0.24 0.24 -0.24 1
-0.28 0.28 -0.2 1
-0.32 0.32 -0.16 1
-0.36 0.36 -0.12 1
-0.4 0.4 -0.08 1
-0.44 0.44 -0.04 1
-0.48 0.48 0 1
-0.52 0.52 0.04 1
-0.56 0.56 0.0800000000000001 1
-0.6 0.6 0.12 1
-0.64 0.64 0.16 1
0.32 -0.32 -0.8 1
0.28 -0.28 -0.76 1
0.24 -0.24 -0.72 1
0.2 -0.2 -0.68 1
0.16 -0.16 -0.64 1
0.12 -0.12 -0.6 1
0.0800000000000001 -0.0800000000000001 -0.56 1
0.04 -0.04 -0.52 1
0 0 -0.48 1
-0.0399999999999999 0.0399999999999999 -0.44 1
-0.08 0.08 -0.4 1
-0.12 0.12 -0.36 1
-0.16 0.16 -0.32 1
-0.2 0.2 -0.28 1
-0.2 0.2 -0.2 1
-0.24 0.24 -0.16 1
-0.28 0.28 -0.12 1
-0.32 0.32 -0.0800000000000001 1
-0.36 0.36 -0.04 1
-0.4 0.4 0 1
-0.44 0.44 0.04 1
-0.48 0.48 0.0800000000000001 1
-0.52 0.52 0.12 1
-0.56 0.56 0.16 1
-0.6 0.6 0.2 1
0.36 -0.36 -0.76 1
0.32 -0.32 -0.72 1
0.28 -0.28 -0.68 1
0.24 -0.24 -0.64 1
0.2 -0.2 -0.6 1
0.16 -0.16 -0.56 1
0.12 -0.12 -0.52 1
0.0800000000000001 -0.0800000000000001 -0.48 1
0.04 -0.04 -0.44 1
0 0 -0.4 1
-0.04 0.04 -0.36 1
-0.0800000000000001 0.0800000000000001 -0.32 1
-0.12 0.12 -0.28 1
-0.16 0.16 -0.24 1
-0.16 0.16 -0.16 1
-0.2 0.2 -0.12 1
-0.24 0.24 -0.0800000000000001 1
-0.28 0.28 -0.04 1
-0.32 0.32 0 1
-0.36 0.36 0.04 1
-0.4 0.4 0.0800000000000001 1
-0.44 0.44 0.12 1
-0.48 0.48 0.16 1
-0.52 0.52 0.2 1
-0.56 0.56 0.24 1
-0.6 0.6 0.28 1
0.36 -0.36 -0.68 1
0.32 -0.32 -0.64 1
0.28 -0.28 -0.6 1
0.24 -0.24 -0.56 1
0.2 -0.2 -0.52 1
0.16 -0.16 -0.48 1
0.12 -0.12 -0.44 1
0.0800000000000001 -0.0800000000000001 -0.4 1
0.04 -0.04 -0.36 1
0 0 -0.32 1
-0.04 0.04 -0.28 1
-0.08 0.08 -0.24 1
-0.12 0.12 -0.2 1
-0.12 0.12 -0.12 1
-0.16 0.16 -0.08 1
-0.2 0.2 -0.04 1
-0.24 0.24 0 1
-0.28 0.28 0.04 1
-0.32 0.32 0.0800000000000001 1
-0.36 0.36 0.12 1
-0.4 0.4 0.16 1
-0.44 0.44 0.2 1
-0.48 0.48 0.24 1
-0.52 0.52 0.28 1
-0.56 0.56 0.32 1
0.4 -0.4 -0.64 1
0.36 -0.36 -0.6 1
0.32 -0.32 -0.56 1
0.28 -0.28 -0.52 1
0.24 -0.24 -0.48 1
0.2 -0.2 -0.44 1
0.16 -0.16 -0.4 1
0.12 -0.12 -0.36 1
0.0800000000000001 -0.0800000000000001 -0.32 1
0.04 -0.04 -0.28 1
0 0 -0.24 1
-0.0399999999999999 0.0399999999999999 -0.2 1
-0.08 0.08 -0.16 1
-0.0800000000000001 0.0800000000000001 -0.0800000000000001 1
-0.12 0.12 -0.04 1
-0.16 0.16 -1.11022302462516e-16 1
-0.2 0.2 0.04 1
-0.24 0.24 0.0799999999999998 1
-0.28 0.28 0.12 1
-0.32 0.32 0.16 1
-0.36 0.36 0.2 1
-0.4 0.4 0.24 1
-0.44 0.44 0.28 1
-0.48 0.48 0.32 1
-0.52 0.52 0.36 1
0.44 -0.44 -0.6 1
0.4 -0.4 -0.56 1
0.36 -0.36 -0.52 1
0.32 -0.32 -0.48 1
0.28 -0.28 -0.44 1
0.24 -0.24 -0.4 1
0.2 -0.2 -0.36 1
0.16 -0.16 -0.32 1
0.12 -0.12 -0.28 1
0.0800000000000001 -0.0800000000000001 -0.24 1
0.04 -0.04 -0.2 1
0 0 -0.16 1
-0.04 0.04 -0.12 1
-0.04 0.04 -0.04 1
-0.0800000000000001 0.0800000000000001 0 1
-0.12 0.12 0.04 1
-0.16 0.16 0.0800000000000001 1
-0.2 0.2 0.12 1
-0.24 0.24 0.16 1
-0.28 0.28 0.2 1
-0.32 0.32 0.24 1
-0.36 0.36 0.28 1
-0.4 0.4 0.32 1
-0.44 0.44 0.36 1
-0.48 0.48 0.4 1
-0.52 0.52 0.44 1
0.44 -0.44 -0.52 1
0.4 -0.4 -0.48 1
0.36 -0.36 -0.44 1
0.32 -0.32 -0.4 1
0.28 -0.28 -0.36 1
0.24 -0.24 -0.32 1
0.2 -0.2 -0.28 1
0.16 -0.16 -0.24 1
0.12 -0.12 -0.2 1
0.0800000000000001 -0.0800000000000001 -0.16 1
0.04 -0.04 -0.12 1
0 0 -0.0800000000000001 1
0.04 0.04 -0.04 1
0 0.08 0 1
-0.04 0.12 0.04 1
-0.08 0.16 0.08 1
-0.12 0.2 0.12 1
-0.16 0.24 0.16 1
-0.2 0.28 0.2 1
-0.24 0.32 0.24 1
-0.28 0.36 0.28 1
-0.32 0.4 0.32 1
-0.36 0.44 0.36 1
-0.4 0.48 0.4 1
-0.44 0.52 0.44 1
0.52 -0.44 -0.52 1
0.48 -0.4 -0.48 1
0.44 -0.36 -0.44 1
0.4 -0.32 -0.4 1
0.36 -0.28 -0.36 1
0.32 -0.24 -0.32 1
0.28 -0.2 -0.28 1
0.24 -0.16 -0.24 1
0.2 -0.12 -0.2 1
0.16 -0.08 -0.16 1
0.12 -0.04 -0.12 1
0.0800000000000001 0 -0.0800000000000001 1
0.08 0 0 1
0.04 0.04 0.04 1
0 0.08 0.08 1
-0.04 0.12 0.12 1
-0.08 0.16 0.16 1
-0.12 0.2 0.2 1
-0.16 0.24 0.24 1
-0.2 0.28 0.28 1
-0.24 0.32 0.32 1
-0.28 0.36 0.36 1
-0.32 0.4 0.4 1
-0.36 0.44 0.44 1
-0.4 0.48 0.48 1
-0.44 0.52 0.52 1
0.52 -0.44 -0.44 1
0.48 -0.4 -0.4 1
0.44 -0.36 -0.36 1
0.4 -0.32 -0.32 1
0.36 -0.28 -0.28 1
0.32 -0.24 -0.24 1
0.28 -0.2 -0.2 1
0.24 -0.16 -0.16 1
0.2 -0.12 -0.12 1
0.16 -0.0800000000000001 -0.0800000000000001 1
0.12 -0.04 -0.04 1
0.12 -0.04 0.04 1
0.08 0 0.08 1
0.04 0.04 0.12 1
6.93889390390723e-18 0.08 0.16 1
-0.04 0.12 0.2 1
-0.08 0.16 0.24 1
-0.12 0.2 0.28 1
-0.16 0.24 0.32 1
-0.2 0.28 0.36 1
-0.24 0.32 0.4 1
-0.28 0.36 0.44 1
-0.32 0.4 0.48 1
-0.36 0.44 0.52 1
-0.4 0.48 0.56 1
0.56 -0.48 -0.4 1
0.52 -0.44 -0.36 1
0.48 -0.4 -0.32 1
0.44 -0.36 -0.28 1
0.4 -0.32 -0.24 1
0.36 -0.28 -0.2 1
0.32 -0.24 -0.16 1
0.28 -0.2 -0.12 1
0.24 -0.16 -0.0800000000000001 1
0.2 -0.12 -0.0400000000000001 1
0.16 -0.08 0 1
0.16 -0.08 0.08 1
0.12 -0.04 0.12 1
0.08 6.93889390390723e-18 0.16 1
0.04 0.04 0.2 1
-6.93889390390723e-18 0.08 0.24 1
-0.04 0.12 0.28 1
-0.08 0.16 0.32 1
-0.12 0.2 0.36 1
-0.16 0.24 0.4 1
-0.2 0.28 0.44 1
-0.24 0.32 0.48 1
-0.28 0.36 0.52 1
-0.32 0.4 0.56 1
-0.36 0.44 0.6 1
0.6 -0.52 -0.36 1
0.56 -0.48 -0.32 1
0.52 -0.44 -0.28 1
0.48 -0.4 -0.24 1
0.44 -0.36 -0.2 1
0.4 -0.32 -0.16 1
0.36 -0.28 -0.12 1
0.32 -0.24 -0.0800000000000001 1
0.28 -0.2 -0.04 1
0.24 -0.16 0 1
0.2 -0.12 0.04 1
0.2 -0.12 0.12 1
0.16 -0.08 0.16 1
0.12 -0.04 0.2 1
0.08 -6.93889390390723e-18 0.24 1
0.04 0.04 0.28 1
-6.93889390390723e-18 0.08 0.32 1
-0.04 0.12 0.36 1
-0.08 0.16 0.4 1
-0.12 0.2 0.44 1
-0.16 0.24 0.48 1
-0.2 0.28 0.52 1
-0.24 0.32 0.56 1
-0.28 0.36 0.6 1
-0.32 0.4 0.64 1
-0.36 0.44 0.68 1
0.6 -0.52 -0.28 1
0.56 -0.48 -0.24 1
0.52 -0.44 -0.2 1
0.48 -0.4 -0.16 1
0.44 -0.36 -0.12 1
0.4 -0.32 -0.0800000000000001 1
0.36 -0.28 -0.04 1
0.32 -0.24 0 1
0.28 -0.2 0.0399999999999998 1
0.24 -0.16 0.0799999999999998 1
0.24 -0.16 0.16 1
0.2 -0.12 0.2 1
0.16 -0.08 0.24 1
0.12 -0.04 0.28 1
0.08 -6.93889390390723e-18 0.32 1
0.04 0.04 0.36 1
2.08166817117217e-17 0.08 0.4 1
-0.04 0.12 0.44 1
-0.08 0.16 0.48 1
-0.12 0.2 0.52 1
-0.16 0.24 0.56 1
-0.2 0.28 0.6 1
-0.24 0.32 0.64 1
-0.28 0.36 0.68 1
-0.32 0.4 0.72 1
0.64 -0.56 -0.24 1
0.6 -0.52 -0.2 1
0.56 -0.48 -0.16 1
0.52 -0.44 -0.12 1
0.48 -0.4 -0.0800000000000001 1
0.44 -0.36 -0.04 1
0.4 -0.32 0 1
0.36 -0.28 0.04 1
0.32 -0.24 0.0799999999999998 1
0.28 -0.2 0.12 1
0.28 -0.2 0.2 1
0.24 -0.16 0.24 1
0.2 -0.12 0.28 1
0.16 -0.08 0.32 1
0.12 -0.04 0.36 1
0.08 2.08166817117217e-17 0.4 1
0.04 0.04 0.44 1
-3.46944695195361e-17 0.08 0.48 1
-0.04 0.12 0.52 1
-0.08 0.16 0.56 1
-0.12 0.2 0.6 1
-0.16 0.24 0.64 1
-0.2 0.28 0.68 1
-0.24 0.32 0.72 1
-0.28 0.36 0.76 1
0.68 -0.6 -0.2 1
0.64 -0.56 -0.16 1
0.6 -0.52 -0.12 1
0.56 -0.48 -0.0800000000000001 1
0.52 -0.44 -0.04 1
0.48 -0.4 0 1
0.44 -0.36 0.04 1
0.4 -0.32 0.0800000000000001 1
0.36 -0.28 0.12 1
0.32 -0.24 0.16 1
0.32 -0.24 0.24 1
0.28 -0.2 0.28 1
0.24 -0.16 0.32 1
0.2 -0.12 0.36 1
0.16 -0.08 0.4 1
0.12 -0.04 0.44 1
0.08 -3.46944695195361e-17 0.48 1
0.04 0.04 0.52 1
2.08166817117217e-17 0.08 0.56 1
-0.04 0.12 0.6 1
-0.08 0.16 0.64 1
-0.12 0.2 0.68 1
-0.16 0.24 0.72 1
-0.2 0.28 0.76 1
-0.24 0.32 0.8 1
-0.28 0.36 0.84 1
0.68 -0.6 -0.12 1
0.64 -0.56 -0.0800000000000001 1
0.6 -0.52 -0.04 1
0.56 -0.48 0 1
0.52 -0.44 0.04 1
0.48 -0.4 0.0800000000000001 1
0.44 -0.36 0.12 1
0.4 -0.32 0.16 1
0.36 -0.28 0.2 1
0.36 -0.28 0.28 1
0.32 -0.24 0.32 1
0.28 -0.2 0.36 1
0.24 -0.16 0.4 1
0.2 -0.12 0.44 1
0.16 -0.08 0.48 1
0.12 -0.04 0.52 1
0.08 2.08166817117217e-17 0.56 1
0.04 0.04 0.6 1
2.08166817117217e-17 0.08 0.64 1
-0.04 0.12 0.68 1
-0.08 0.16 0.72 1
-0.12 0.2 0.76 1
-0.16 0.24 0.8 1
-0.2 0.28 0.84 1
-0.24 0.32 0.88 1
0.72 -0.64 -0.0800000000000001 1
0.68 -0.6 -0.04 1
0.64 -0.56 0 1
0.6 -0.52 0.04 1
0.56 -0.48 0.0799999999999998 1
0.52 -0.44 0.12 1
0.48 -0.4 0.16 1
0.44 -0.36 0.2 1
0.4 -0.32 0.24 1
0.4 -0.32 0.32 1
0.36 -0.28 0.36 1
0.32 -0.24 0.4 1
0.28 -0.2 0.44 1
0.24 -0.16 0.48 1
0.2 -0.12 0.52 1
0.16 -0.08 0.56 1
0.12 -0.04 0.6 1
0.08 2.08166817117217e-17 0.64 1
0.04 0.04 0.68 1
-3.46944695195361e-17 0.08 0.72 1
-0.04 0.12 0.76 1
-0.08 0.16 0.8 1
-0.12 0.2 0.84 1
-0.16 0.24 0.88 1
-0.2 0.28 0.92 1
0.76 -0.68 -0.0400000000000001 1
0.72 -0.64 0 1
0.68 -0.6 0.04 1
0.64 -0.56 0.0800000000000001 1
0.6 -0.52 0.12 1
0.56 -0.48 0.16 1
0.52 -0.44 0.2 1
0.48 -0.4 0.24 1
0.44 -0.36 0.28 1
0.44 -0.36 0.36 1
0.4 -0.32 0.4 1
0.36 -0.28 0.44 1
0.32 -0.24 0.48 1
0.28 -0.2 0.52 1
0.24 -0.16 0.56 1
0.2 -0.12 0.6 1
0.16 -0.08 0.64 1
0.12 -0.04 0.68 1
0.08 -3.46944695195361e-17 0.72 1
0.04 0.04 0.76 1
2.08166817117217e-17 0.08 0.8 1
-0.04 0.12 0.84 1
-0.08 0.16 0.88 1
-0.12 0.2 0.92 1
-0.16 0.24 0.96 1
-0.2 0.28 1 1
0.76 -0.68 0.04 1
0.72 -0.64 0.0800000000000001 1
0.68 -0.6 0.12 1
0.64 -0.56 0.16 1
0.6 -0.52 0.2 1
0.56 -0.48 0.24 1
0.52 -0.44 0.28 1
0.48 -0.4 0.32 1
0.48 -0.4 0.4 1
0.44 -0.36 0.44 1
0.4 -0.32 0.48 1
0.36 -0.28 0.52 1
0.32 -0.24 0.56 1
0.28 -0.2 0.6 1
0.24 -0.16 0.64 1
0.2 -0.12 0.68 1
0.16 -0.08 0.72 1
0.12 -0.04 0.76 1
0.08 2.08166817117217e-17 0.8 1
0.04 0.04 0.84 1
2.08166817117217e-17 0.08 0.88 1
-0.04 0.12 0.92 1
-0.0799999999999999 0.16 0.96 1
-0.12 0.2 1 1
-0.16 0.24 -0.96 1
-0.2 0.28 -0.92 1
-0.24 0.32 -0.88 1
-0.28 0.36 -0.84 1
0.68 -0.6 0.2 1
0.64 -0.56 0.24 1
0.6 -0.52 0.28 1
0.56 -0.48 0.32 1
0.52 -0.44 0.36 1
0.52 -0.44 0.44 1
0.48 -0.4 0.48 1
0.44 -0.36 0.52 1
0.4 -0.32 0.56 1
0.36 -0.28 0.6 1
0.32 -0.24 0.64 1
0.28 -0.2 0.68 1
0.24 -0.16 0.72 1
0.2 -0.12 0.76 1
0.16 -0.08 0.8 1
0.12 -0.04 0.84 1
0.08 2.08166817117217e-17 0.88 1
0.04 0.04 0.92 1
-3.46944695195361e-17 0.08 0.96 1
-0.04 0.12 1 1
-0.08 0.16 -0.96 1
-0.12 0.2 -0.92 1
-0.16 0.24 -0.88 1
-0.2 0.28 -0.84 1
-0.24 0.32 -0.8 1
-0.28 0.36 -0.76 1
-0.32 0.4 -0.72 1
-0.36 0.44 -0.68 1
0.6 -0.52 0.36 1
0.56 -0.48 0.4 1
-0.44 0.52 -0.52 1
0.52 -0.44 0.52 1
0.48 -0.4 0.56 1
0.44 -0.36 0.6 1
0.4 -0.32 0.64 1
0.36 -0.28 0.68 1
0.32 -0.24 0.72 1
0.28 -0.2 0.76 1
0.24 -0.16 0.8 1
0.2 -0.12 0.84 1
0.16 -0.08 0.88 1
0.12 -0.04 0.92 1
0.08 -3.46944695195361e-17 0.96 1
0.04 0.04 1 1
0 0.08 -0.96 1
-0.0399999999999999 0.12 -0.92 1
-0.0799999999999998 0.16 -0.88 1
-0.12 0.2 -0.84 1
-0.16 0.24 -0.8 1
-0.2 0.28 -0.76 1
-0.24 0.32 -0.72 1
-0.28 0.36 -0.68 1
-0.32 0.4 -0.64 1
-0.36 0.44 -0.6 1
-0.4 0.48 -0.56 1
-0.4 0.48 -0.48 1
-0.44 0.52 -0.44 1
-0.48 0.56 -0.4 1
-0.52 0.6 -0.36 1
0.44 -0.36 0.68 1
0.4 -0.32 0.72 1
0.36 -0.28 0.76 1
0.32 -0.24 0.8 1
0.28 -0.2 0.84 1
0.24 -0.16 0.88 1
0.2 -0.12 0.92 1
0.16 -0.0799999999999999 0.96 1
0.12 -0.04 1 1
0.0799999999999998 1.11022302462516e-16 -0.96 1
0.04 0.04 -0.92 1
0 0.0800000000000001 -0.88 1
-0.0399999999999999 0.12 -0.84 1
-0.08 0.16 -0.8 1
-0.12 0.2 -0.76 1
-0.16 0.24 -0.72 1
-0.2 0.28 -0.68 1
-0.24 0.32 -0.64 1
-0.28 0.36 -0.6 1
-0.32 0.4 -0.56 1
-0.36 0.44 -0.52 1
-0.36 0.44 -0.44 1
-0.4 0.48 -0.4 1
-0.44 0.52 -0.36 1
-0.48 0.56 -0.32 1
-0.52 0.6 -0.28 1
-0.56 0.64 -0.24 1
-0.6 0.68 -0.2 1
0.36 -0.28 0.84 1
0.32 -0.24 0.88 1
0.28 -0.2 0.92 1
0.24 -0.16 0.96 1
0.2 -0.12 1 1
0.16 -0.0800000000000001 -0.96 1
0.12 -0.04 -0.92 1
0.0800000000000001 0 -0.88 1
0.04 0.04 -0.84 1
0 0.08 -0.8 1
-0.0399999999999999 0.12 -0.76 1
-0.08 0.16 -0.72 1
-0.12 0.2 -0.68 1
-0.16 0.24 -0.64 1
-0.2 0.28 -0.6 1
-0.24 0.32 -0.56 1
-0.28 0.36 -0.52 1
-0.32 0.4 -0.48 1
-0.32 0.4 -0.4 1
-0.36 0.44 -0.36 1
-0.4 0.48 -0.32 1
-0.44 0.52 -0.28 1
-0.48 0.56 -0.24 1
-0.52 0.6 -0.2 1
-0.56 0.64 -0.16 1
-0.6 0.68 -0.12 1
-0.64 0.72 -0.0800000000000001 1
-0.68 0.76 -0.0400000000000001 1
0.28 -0.2 1 1
0.24 -0.16 -0.96 1
0.2 -0.12 -0.92 1
0.16 -0.0799999999999998 -0.88 1
0.12 -0.04 -0.84 1
0.0799999999999998 1.11022302462516e-16 -0.8 1
0.04 0.04 -0.76 1
0 0.0800000000000001 -0.72 1
-0.04 0.12 -0.68 1
-0.0800000000000001 0.16 -0.64 1
-0.12 0.2 -0.6 1
-0.16 0.24 -0.56 1
-0.2 0.28 -0.52 1
-0.24 0.32 -0.48 1
-0.28 0.36 -0.44 1
-0.28 0.36 -0.36 1
-0.32 0.4 -0.32 1
-0.36 0.44 -0.28 1
-0.4 0.48 -0.24 1
-0.44 0.52 -0.2 1
-0.48 0.56 -0.16 1
-0.52 0.6 -0.12 1
-0.56 0.64 -0.0800000000000001 1
-0.6 0.68 -0.04 1
-0.64 0.72 0 1
-0.68 0.76 0.04 1
0.28 -0.2 -0.92 1
0.24 -0.16 -0.88 1
0.2 -0.12 -0.84 1
0.16 -0.0800000000000001 -0.8 1
0.12 -0.04 -0.76 1
0.0800000000000001 0 -0.72 1
0.04 0.04 -0.68 1
0 0.0800000000000001 -0.64 1
-0.04 0.12 -0.6 1
-0.08 0.16 -0.56 1
-0.12 0.2 -0.52 1
-0.16 0.24 -0.48 1
-0.2 0.28 -0.44 1
-0.24 0.32 -0.4 1
-0.24 0.32 -0.32 1
-0.28 0.36 -0.28 1
-0.32 0.4 -0.24 1
-0.36 0.44 -0.2 1
-0.4 0.48 -0.16 1
-0.44 0.52 -0.12 1
-0.48 0.56 -0.0800000000000001 1
-0.52 0.6 -0.04 1
-0.56 0.64 0 1
-0.6 0.68 0.04 1
-0.64 0.72 0.0800000000000001 1
0.32 -0.24 -0.88 1
0.28 -0.2 -0.84 1
0.24 -0.16 -0.8 1
0.2 -0.12 -0.76 1
0.16 -0.0800000000000001 -0.72 1
0.12 -0.04 -0.68 1
0.0800000000000001 0 -0.64 1
0.04 0.04 -0.6 1
0 0.0800000000000001 -0.56 1
-0.0399999999999999 0.12 -0.52 1
-0.08 0.16 -0.48 1
-0.12 0.2 -0.44 1
-0.16 0.24 -0.4 1
-0.2 0.28 -0.36 1
-0.2 0.28 -0.28 1
-0.24 0.32 -0.24 1
-0.28 0.36 -0.2 1
-0.32 0.4 -0.16 1
-0.36 0.44 -0.12 1
-0.4 0.48 -0.0800000000000001 1
-0.44 0.52 -0.04 1
-0.48 0.56 0 1
-0.52 0.6 0.04 1
-0.56 0.64 0.0800000000000001 1
-0.6 0.68 0.12 1
0.36 -0.28 -0.84 1
0.32 -0.24 -0.8 1
0.28 -0.2 -0.76 1
0.24 -0.16 -0.72 1
0.2 -0.12 -0.68 1
0.16 -0.0800000000000001 -0.64 1
0.12 -0.04 -0.6 1
0.0800000000000001 0 -0.56 1
0.04 0.04 -0.52 1
0 0.08 -0.48 1
-0.0399999999999999 0.12 -0.44 1
-0.08 0.16 -0.4 1
-0.12 0.2 -0.36 1
-0.16 0.24 -0.32 1
-0.16 0.24 -0.24 1
-0.2 0.28 -0.2 1
-0.24 0.32 -0.16 1
-0.28 0.36 -0.12 1
-0.32 0.4 -0.0800000000000001 1
-0.36 0.44 -0.04 1
-0.4 0.48 0 1
-0.44 0.52 0.04 1
-0.48 0.56 0.0799999999999998 1
-0.52 0.6 0.12 1
-0.56 0.64 0.16 1
-0.6 0.68 0.2 1
0.36 -0.28 -0.76 1
0.32 -0.24 -0.72 1
0.28 -0.2 -0.68 1
0.24 -0.16 -0.64 1
0.2 -0.12 -0.6 1
0.16 -0.0800000000000001 -0.56 1
0.12 -0.04 -0.52 1
0.0799999999999998 1.11022302462516e-16 -0.48 1
0.04 0.04 -0.44 1
0 0.0800000000000001 -0.4 1
-0.04 0.12 -0.36 1
-0.08 0.16 -0.32 1
-0.12 0.2 -0.28 1
-0.12 0.2 -0.2 1
-0.16 0.24 -0.16 1
-0.2 0.28 -0.12 1
-0.24 0.32 -0.0800000000000001 1
-0.28 0.36 -0.04 1
-0.32 0.4 0 1
-0.36 0.44 0.04 1
-0.4 0.48 0.0800000000000001 1
-0.44 0.52 0.12 1
-0.48 0.56 0.16 1
-0.52 0.6 0.2 1
-0.56 0.64 0.24 1
0.4 -0.32 -0.72 1
0.36 -0.28 -0.68 1
0.32 -0.24 -0.64 1
0.28 -0.2 -0.6 1
0.24 -0.16 -0.56 1
0.2 -0.12 -0.52 1
0.16 -0.0800000000000001 -0.48 1
0.12 -0.04 -0.44 1
0.0800000000000001 0 -0.4 1
0.04 0.04 -0.36 1
0 0.0800000000000001 -0.32 1
-0.0399999999999999 0.12 -0.28 1
-0.08 0.16 -0.24 1
-0.08 0.16 -0.16 1
-0.12 0.2 -0.12 1
-0.16 0.24 -0.0800000000000001 1
-0.2 0.28 -0.04 1
-0.24 0.32 0 1
-0.28 0.36 0.04 1
-0.32 0.4 0.0800000000000001 1
-0.36 0.44 0.12 1
-0.4 0.48 0.16 1
-0.44 0.52 0.2 1
-0.48 0.56 0.24 1
-0.52 0.6 0.28 1
0.44 -0.36 -0.68 1
0.4 -0.32 -0.64 1
0.36 -0.28 -0.6 1
0.32 -0.24 -0.56 1
0.28 -0.2 -0.52 1
0.24 -0.16 -0.48 1
0.2 -0.12 -0.44 1
0.16 -0.0800000000000001 -0.4 1
0.12 -0.04 -0.36 1
0.0800000000000001 0 -0.32 1
0.04 0.04 -0.28 1
0 0.08 -0.24 1
-0.0399999999999999 0.12 -0.2 1
-0.04 0.12 -0.12 1
-0.0800000000000001 0.16 -0.0800000000000001 1
-0.12 0.2 -0.0400000000000001 1
-0.16 0.24 0 1
-0.2 0.28 0.0399999999999998 1
-0.24 0.32 0.0799999999999998 1
-0.28 0.36 0.12 1
-0.32 0.4 0.16 1
-0.36 0.44 0.2 1
-0.4 0.48 0.24 1
-0.44 0.52 0.28 1
-0.48 0.56 0.32 1
-0.52 0.6 0.36 1
0.44 -0.36 -0.6 1
0.4 -0.32 -0.56 1
0.36 -0.28 -0.52 1
0.32 -0.24 -0.48 1
0.28 -0.2 -0.44 1
0.24 -0.16 -0.4 1
0.2 -0.12 -0.36 1
0.16 -0.0800000000000001 -0.32 1
0.12 -0.04 -0.28 1
0.0799999999999998 1.11022302462516e-16 -0.24 1
0.04 0.04 -0.2 1
0 0.0800000000000001 -0.16 1
0 0.0800000000000001 -0.0800000000000001 1
-0.04 0.12 -0.04 1
-0.08 0.16 0 1
-0.12 0.2 0.04 1
-0.16 0.24 0.0799999999999998 1
-0.2 0.28 0.12 1
-0.24 0.32 0.16 1
-0.28 0.36 0.2 1
-0.32 0.4 0.24 1
-0.36 0.44 0.28 1
-0.4 0.48 0.32 1
-0.44 0.52 0.36 1
-0.48 0.56 0.4 1
0.48 -0.4 -0.56 1
0.44 -0.36 -0.52 1
0.4 -0.32 -0.48 1
0.36 -0.28 -0.44 1
0.32 -0.24 -0.4 1
0.28 -0.2 -0.36 1
0.24 -0.16 -0.32 1
0.2 -0.12 -0.28 1
0.16 -0.0800000000000001 -0.24 1
0.12 -0.04 -0.2 1
0.0800000000000001 0 -0.16 1
0.04 0.04 -0.12 1
0.08 0.08 -0.08 1
0.04 0.12 -0.04 1
0 0.16 0 1
-0.04 0.2 0.04 1
-0.08 0.24 0.08 1
-0.12 0.28 0.12 1
-0.16 0.32 0.16 1
-0.2 0.36 0.2 1
-0.24 0.4 0.24 1
-0.28 0.44 0.28 1
-0.32 0.48 0.32 1
-0.36 0.52 0.36 1
-0.4 0.56 0.4 1
-0.44 0.6 0.44 1
0.52 -0.36 -0.52 1
0.48 -0.32 -0.48 1
0.44 -0.28 -0.44 1
0.4 -0.24 -0.4 1
0.36 -0.2 -0.36 1
0.32 -0.16 -0.32 1
0.28 -0.12 -0.28 1
0.24 -0.0800000000000001 -0.24 1
0.2 -0.04 -0.2 1
0.16 -1.11022302462516e-16 -0.16 1
0.12 0.04 -0.12 1
0.12 0.04 -0.04 1
0.08 0.08 0 1
0.04 0.12 0.04 1
1.38777878078145e-17 0.16 0.08 1
-0.04 0.2 0.12 1
-0.08 0.24 0.16 1
-0.12 0.28 0.2 1
-0.16 0.32 0.24 1
-0.2 0.36 0.28 1
-0.24 0.4 0.32 1
-0.28 0.44 0.36 1
-0.32 0.48 0.4 1
-0.36 0.52 0.44 1
-0.4 0.56 0.48 1
0.56 -0.4 -0.48 1
0.52 -0.36 -0.44 1
0.48 -0.32 -0.4 1
0.44 -0.28 -0.36 1
0.4 -0.24 -0.32 1
0.36 -0.2 -0.28 1
0.32 -0.16 -0.24 1
0.28 -0.12 -0.2 1
0.24 -0.0800000000000001 -0.16 1
0.2 -0.0400000000000001 -0.12 1
0.16 -1.11022302462516e-16 -0.08 1
0.16 0 0 1
0.12 0.04 0.04 1
0.08 0.08 0.08 1
0.04 0.12 0.12 1
0 0.16 0.16 1
-0.04 0.2 0.2 1
-0.08 0.24 0.24 1
-0.12 0.28 0.28 1
-0.16 0.32 0.32 1
-0.2 0.36 0.36 1
-0.24 0.4 0.4 1
-0.28 0.44 0.44 1
-0.32 0.48 0.48 1
-0.36 0.52 0.52 1
0.6 -0.44 -0.44 1
0.56 -0.4 -0.4 1
0.52 -0.36 -0.36 1
0.48 -0.32 -0.32 1
0.44 -0.28 -0.28 1
0.4 -0.24 -0.24 1
0.36 -0.2 -0.2 1
0.32 -0.16 -0.16 1
0.28 -0.12 -0.12 1
0.24 -0.0800000000000001 -0.0800000000000001 1
0.2 -0.04 -0.0399999999999999 1
0.2 -0.04 0.04 1
0.16 1.38777878078145e-17 0.08 1
0.12 0.04 0.12 1
0.08 0.08 0.16 1
0.04 0.12 0.2 1
-1.38777878078145e-17 0.16 0.24 1
-0.04 0.2 0.28 1
-0.08 0.24 0.32 1
-0.12 0.28 0.36 1
-0.16 0.32 0.4 1
-0.2 0.36 0.44 1
-0.24 0.4 0.48 1
-0.28 0.44 0.52 1
-0.32 0.48 0.56 1
-0.36 0.52 0.6 1
0.6 -0.44 -0.36 1
0.56 -0.4 -0.32 1
0.52 -0.36 -0.28 1
0.48 -0.32 -0.24 1
0.44 -0.28 -0.2 1
0.4 -0.24 -0.16 1
0.36 -0.2 -0.12 1
0.32 -0.16 -0.08 1
0.28 -0.12 -0.0399999999999999 1
0.24 -0.0800000000000001 0 1
0.24 -0.08 0.08 1
0.2 -0.04 0.12 1
0.16 0 0.16 1
0.12 0.04 0.2 1
0.08 0.08 0.24 1
0.04 0.12 0.28 1
1.38777878078145e-17 0.16 0.32 1
-0.04 0.2 0.36 1
-0.08 0.24 0.4 1
-0.12 0.28 0.44 1
-0.16 0.32 0.48 1
-0.2 0.36 0.52 1
-0.24 0.4 0.56 1
-0.28 0.44 0.6 1
-0.32 0.48 0.64 1
0.64 -0.48 -0.32 1
0.6 -0.44 -0.28 1
0.56 -0.4 -0.24 1
0.52 -0.36 -0.2 1
0.48 -0.32 -0.16 1
0.44 -0.28 -0.12 1
0.4 -0.24 -0.08 1
0.36 -0.2 -0.0399999999999999 1
0.32 -0.16 -1.11022302462516e-16 1
0.28 -0.12 0.0399999999999998 1
0.28 -0.12 0.12 1
0.24 -0.08 0.16 1
0.2 -0.04 0.2 1
0.16 -1.38777878078145e-17 0.24 1
0.12 0.04 0.28 1
0.08 0.08 0.32 1
0.04 0.12 0.36 1
-1.38777878078145e-17 0.16 0.4 1
-0.04 0.2 0.44 1
-0.08 0.24 0.48 1
-0.12 0.28 0.52 1
-0.16 0.32 0.56 1
-0.2 0.36 0.6 1
-0.24 0.4 0.64 1
-0.28 0.44 0.68 1
0.68 -0.52 -0.28 1
0.64 -0.48 -0.24 1
0.6 -0.44 -0.2 1
0.56 -0.4 -0.16 1
0.52 -0.36 -0.12 1
0.48 -0.32 -0.08 1
0.44 -0.28 -0.0399999999999999 1
0.4 -0.24 0 1
0.36 -0.2 0.0399999999999998 1
0.32 -0.16 0.0799999999999998 1
0.32 -0.16 0.16 1
0.28 -0.12 0.2 1
0.24 -0.08 0.24 1
0.2 -0.04 0.28 1
0.16 1.38777878078145e-17 0.32 1
0.12 0.04 0.36 1
0.08 0.08 0.4 1
0.04 0.12 0.44 1
-1.38777878078145e-17 0.16 0.48 1
-0.04 0.2 0.52 1
-0.08 0.24 0.56 1
-0.12 0.28 0.6 1
-0.16 0.32 0.64 1
-0.2 0.36 0.68 1
-0.24 0.4 0.72 1
-0.28 0.44 0.76 1
0.68 -0.52 -0.2 1
0.64 -0.48 -0.16 1
0.6 -0.44 -0.12 1
0.56 -0.4 -0.08 1
0.52 -0.36 -0.0399999999999999 1
0.48 -0.32 0 1
0.44 -0.28 0.04 1
0.4 -0.24 0.0799999999999998 1
0.36 -0.2 0.12 1
0.36 -0.2 0.2 1
0.32 -0.16 0.24 1
0.28 -0.12 0.28 1
0.24 -0.08 0.32 1
0.2 -0.04 0.36 1
0.16 -1.38777878078145e-17 0.4 1
0.12 0.04 0.44 1
0.08 0.08 0.48 1
0.04 0.12 0.52 1
4.16333634234434e-17 0.16 0.56 1
-0.04 0.2 0.6 1
-0.08 0.24 0.64 1
-0.12 0.28 0.68 1
-0.16 0.32 0.72 1
-0.2 0.36 0.76 1
-0.24 0.4 0.8 1
0.72 -0.56 -0.16 1
0.68 -0.52 -0.12 1
0.64 -0.48 -0.08 1
0.6 -0.44 -0.0399999999999999 1
0.56 -0.4 0 1