64000
64000
0 0 0 1
-0.025 0.025 0.025 1
-0.05 0.05 0.05 1
-0.075 0.075 0.075 1
-0.1 0.1 0.1 1
-0.125 0.125 0.125 1
-0.15 0.15 0.15 1
-0.175 0.175 0.175 1
-0.2 0.2 0.2 1
-0.225 0.225 0.225 1
-0.25 0.25 0.25 1
-0.275 0.275 0.275 1
-0.3 0.3 0.3 1
-0.325 0.325 0.325 1
-0.35 0.35 0.35 1
-0.375 0.375 0.375 1
-0.4 0.4 0.4 1
-0.425 0.425 0.425 1
-0.45 0.45 0.45 1
-0.475 0.475 0.475 1
-0.5 0.5 0.5 1
0.475 -0.475 -0.475 1
0.45 -0.45 -0.45 1
0.425 -0.425 -0.425 1
0.4 -0.4 -0.4 1
0.375 -0.375 -0.375 1
0.35 -0.35 -0.35 1
0.325 -0.325 -0.325 1
0.3 -0.3 -0.3 1
0.275 -0.275 -0.275 1
0.25 -0.25 -0.25 1
0.225 -0.225 -0.225 1
0.2 -0.2 -0.2 1
0.175 -0.175 -0.175 1
0.15 -0.15 -0.15 1
0.125 -0.125 -0.125 1
0.1 -0.1 -0.1 1
0.0750000000000001 -0.0750000000000001 -0.0750000000000001 1
0.05 -0.05 -0.05 1
0.025 -0.025 -0.025 1
0.025 -0.025 0.025 1
0 0 0.05 1
-0.025 0.025 0.075 1
-0.05 0.05 0.1 1
-0.075 0.075 0.125 1
-0.1 0.1 0.15 1
-0.125 0.125 0.175 1
-0.15 0.15 0.2 1
-0.175 0.175 0.225 1
-0.2 0.2 0.25 1
-0.225 0.225 0.275 1
-0.25 0.25 0.3 1
-0.275 0.275 0.325 1
-0.3 0.3 0.35 1
-0.325 0.325 0.375 1
-0.35 0.35 0.4 1
-0.375 0.375 0.425 1
-0.4 0.4 0.45 1
-0.425 0.425 0.475 1
-0.45 0.45 0.5 1
-0.475 0.475 0.525 1
0.5 -0.5 -0.45 1
0.475 -0.475 -0.425 1
0.45 -0.45 -0.4 1
0.425 -0.425 -0.375 1
0.4 -0.4 -0.35 1
0.375 -0.375 -0.325 1
0.35 -0.35 -0.3 1
0.325 -0.325 -0.275 1
0.3 -0.3 -0.25 1
0.275 -0.275 -0.225 1
0.25 -0.25 -0.2 1
0.225 -0.225 -0.175 1
0.2 -0.2 -0.15 1
0.175 -0.175 -0.125 1
0.15 -0.15 -0.1 1
0.125 -0.125 -0.0750000000000001 1
0.1 -0.1 -0.05 1
0.0750000000000001 -0.0750000000000001 -0.025 1
0.05 -0.05 0 1
0.05 -0.05 0.05 1
0.025 -0.025 0.075 1
0 0 0.1 1
-0.025 0.025 0.125 1
-0.05 0.05 0.15 1
-0.075 0.075 0.175 1
-0.1 0.1 0.2 1
-0.125 0.125 0.225 1
-0.15 0.15 0.25 1
-0.175 0.175 0.275 1
-0.2 0.2 0.3 1
-0.225 0.225 0.325 1
-0.25 0.25 0.35 1
-0.275 0.275 0.375 1
-0.3 0.3 0.4 1
-0.325 0.325 0.425 1
-0.35 0.35 0.45 1
-0.375 0.375 0.475 1
-0.4 0.4 0.5 1
-0.425 0.425 0.525 1
-0.45 0.45 0.55 1
0.525 -0.525 -0.425 1
0.5 -0.5 -0.4 1
0.475 -0.475 -0.375 1
0.45 -0.45 -0.35 1
0.425 -0.425 -0.325 1
0.4 -0.4 -0.3 1
0.375 -0.375 -0.275 1
0.35 -0.35 -0.25 1
0.325 -0.325 -0.225 1
0.3 -0.3 -0.2 1
0.275 -0.275 -0.175 1
0.25 -0.25 -0.15 1
0.225 -0.225 -0.125 1
0.2 -0.2 -0.1 1
0.175 -0.175 -0.075 1
0.15 -0.15 -0.05 1
0.125 -0.125 -0.025 1
0.1 -0.1 0 1
0.0750000000000001 -0.0750000000000001 0.0249999999999999 1
0.075 -0.075 0.075 1
0.05 -0.05 0.1 1
0.025 -0.025 0.125 1
0 0 0.15 1
-0.025 0.025 0.175 1
-0.05 0.05 0.2 1
-0.075 0.075 0.225 1
-0.1 0.1 0.25 1
-0.125 0.125 0.275 1
-0.15 0.15 0.3 1
-0.175 0.175 0.325 1
-0.2 0.2 0.35 1
-0.225 0.225 0.375 1
-0.25 0.25 0.4 1
-0.275 0.275 0.425 1
-0.3 0.3 0.45 1
-0.325 0.325 0.475 1
-0.35 0.35 0.5 1
-0.375 0.375 0.525 1
-0.4 0.4 0.55 1
-0.425 0.425 0.575 1
-0.45 0.45 0.6 1
0.525 -0.525 -0.375 1
0.5 -0.5 -0.35 1
0.475 -0.475 -0.325 1
0.45 -0.45 -0.3 1
0.425 -0.425 -0.275 1
0.4 -0.4 -0.25 1
0.375 -0.375 -0.225 1
0.35 -0.35 -0.2 1
0.325 -0.325 -0.175 1
0.3 -0.3 -0.15 1
0.275 -0.275 -0.125 1
0.25 -0.25 -0.1 1
0.225 -0.225 -0.075 1
0.2 -0.2 -0.05 1
0.175 -0.175 -0.0250000000000001 1
0.15 -0.15 0 1
0.125 -0.125 0.0249999999999999 1
0.1 -0.1 0.05 1
0.1 -0.1 0.1 1
0.075 -0.075 0.125 1
0.05 -0.05 0.15 1
0.025 -0.025 0.175 1
0 0 0.2 1
-0.025 0.025 0.225 1
-0.05 0.05 0.25 1
-0.075 0.075 0.275 1
-0.1 0.1 0.3 1
-0.125 0.125 0.325 1
-0.15 0.15 0.35 1
-0.175 0.175 0.375 1
-0.2 0.2 0.4 1
-0.225 0.225 0.425 1
-0.25 0.25 0.45 1
-0.275 0.275 0.475 1
-0.3 0.3 0.5 1
-0.325 0.325 0.525 1
-0.35 0.35 0.55 1
-0.375 0.375 0.575 1
-0.4 0.4 0.6 1
-0.425 0.425 0.625 1
0.55 -0.55 -0.35 1
0.525 -0.525 -0.325 1
0.5 -0.5 -0.3 1
0.475 -0.475 -0.275 1
0.45 -0.45 -0.25 1
0.425 -0.425 -0.225 1
0.4 -0.4 -0.2 1
0.375 -0.375 -0.175 1
0.35 -0.35 -0.15 1
0.325 -0.325 -0.125 1
0.3 -0.3 -0.1 1
0.275 -0.275 -0.0750000000000001 1
0.25 -0.25 -0.05 1
0.225 -0.225 -0.025 1
0.2 -0.2 -1.11022302462516e-16 1
0.175 -0.175 0.0249999999999999 1
0.15 -0.15 0.05 1
0.125 -0.125 0.075 1
0.125 -0.125 0.125 1
0.1 -0.1 0.15 1
0.075 -0.075 0.175 1
0.05 -0.05 0.2 1
0.025 -0.025 0.225 1
0 0 0.25 1
-0.025 0.025 0.275 1
-0.05 0.05 0.3 1
-0.075 0.075 0.325 1
-0.1 0.1 0.35 1
-0.125 0.125 0.375 1
-0.15 0.15 0.4 1
-0.175 0.175 0.425 1
-0.2 0.2 0.45 1
-0.225 0.225 0.475 1
-0.25 0.25 0.5 1
-0.275 0.275 0.525 1
-0.3 0.3 0.55 1
-0.325 0.325 0.575 1
-0.35 0.35 0.6 1
-0.375 0.375 0.625 1
-0.4 0.4 0.65 1
0.575 -0.575 -0.325 1
0.55 -0.55 -0.3 1
0.525 -0.525 -0.275 1
0.5 -0.5 -0.25 1
0.475 -0.475 -0.225 1
0.45 -0.45 -0.2 1
0.425 -0.425 -0.175 1
0.4 -0.4 -0.15 1
0.375 -0.375 -0.125 1
0.35 -0.35 -0.1 1
0.325 -0.325 -0.0750000000000001 1
0.3 -0.3 -0.05 1
0.275 -0.275 -0.025 1
0.25 -0.25 0 1
0.225 -0.225 0.0249999999999999 1
0.2 -0.2 0.0499999999999998 1
0.175 -0.175 0.075 1
0.15 -0.15 0.1 1
0.15 -0.15 0.15 1
0.125 -0.125 0.175 1
0.1 -0.1 0.2 1
0.075 -0.075 0.225 1
0.05 -0.05 0.25 1
0.025 -0.025 0.275 1
0 0 0.3 1
-0.025 0.025 0.325 1
-0.05 0.05 0.35 1
-0.075 0.075 0.375 1
-0.1 0.1 0.4 1
-0.125 0.125 0.425 1
-0.15 0.15 0.45 1
-0.175 0.175 0.475 1
-0.2 0.2 0.5 1
-0.225 0.225 0.525 1
-0.25 0.25 0.55 1
-0.275 0.275 0.575 1
-0.3 0.3 0.6 1
-0.325 0.325 0.625 1
-0.35 0.35 0.65 1
-0.375 0.375 0.675 1
-0.4 0.4 0.7 1
0.575 -0.575 -0.275 1
0.55 -0.55 -0.25 1
0.525 -0.525 -0.225 1
0.5 -0.5 -0.2 1
0.475 -0.475 -0.175 1
0.45 -0.45 -0.15 1
0.425 -0.425 -0.125 1
0.4 -0.4 -0.1 1
0.375 -0.375 -0.0750000000000001 1
0.35 -0.35 -0.05 1
0.325 -0.325 -0.025 1
0.3 -0.3 0 1
0.275 -0.275 0.0249999999999999 1
0.25 -0.25 0.0499999999999998 1
0.225 -0.225 0.075 1
0.2 -0.2 0.1 1
0.175 -0.175 0.125 1
0.175 -0.175 0.175 1
0.15 -0.15 0.2 1
0.125 -0.125 0.225 1
0.1 -0.1 0.25 1
0.075 -0.075 0.275 1
0.05 -0.05 0.3 1
0.025 -0.025 0.325 1
0 0 0.35 1
-0.025 0.025 0.375 1
-0.05 0.05 0.4 1
-0.075 0.075 0.425 1
-0.1 0.1 0.45 1
-0.125 0.125 0.475 1
-0.15 0.15 0.5 1
-0.175 0.175 0.525 1
-0.2 0.2 0.55 1
-0.225 0.225 0.575 1
-0.25 0.25 0.6 1
-0.275 0.275 0.625 1
-0.3 0.3 0.65 1
-0.325 0.325 0.675 1
-0.35 0.35 0.7 1
-0.375 0.375 0.725 1
0.6 -0.6 -0.25 1
0.575 -0.575 -0.225 1
0.55 -0.55 -0.2 1
0.525 -0.525 -0.175 1
0.5 -0.5 -0.15 1
0.475 -0.475 -0.125 1
0.45 -0.45 -0.1 1
0.425 -0.425 -0.075 1
0.4 -0.4 -0.05 1
0.375 -0.375 -0.025 1
0.35 -0.35 0 1
0.325 -0.325 0.0249999999999999 1
0.3 -0.3 0.05 1
0.275 -0.275 0.075 1
0.25 -0.25 0.0999999999999999 1
0.225 -0.225 0.125 1
0.2 -0.2 0.15 1
0.2 -0.2 0.2 1
0.175 -0.175 0.225 1
0.15 -0.15 0.25 1
0.125 -0.125 0.275 1
0.1 -0.1 0.3 1
0.075 -0.075 0.325 1
0.05 -0.05 0.35 1
0.025 -0.025 0.375 1
0 0 0.4 1
-0.025 0.025 0.425 1
-0.05 0.05 0.45 1
-0.075 0.075 0.475 1
-0.1 0.1 0.5 1
-0.125 0.125 0.525 1
-0.15 0.15 0.55 1
-0.175 0.175 0.575 1
-0.2 0.2 0.6 1
-0.225 0.225 0.625 1
-0.25 0.25 0.65 1
-0.275 0.275 0.675 1
-0.3 0.3 0.7 1
-0.325 0.325 0.725 1
-0.35 0.35 0.75 1
0.625 -0.625 -0.225 1
0.6 -0.6 -0.2 1
0.575 -0.575 -0.175 1
0.55 -0.55 -0.15 1
0.525 -0.525 -0.125 1
0.5 -0.5 -0.1 1
0.475 -0.475 -0.075 1
0.45 -0.45 -0.05 1
0.425 -0.425 -0.0250000000000001 1
0.4 -0.4 0 1
0.375 -0.375 0.0249999999999999 1
0.35 -0.35 0.05 1
0.325 -0.325 0.075 1
0.3 -0.3 0.0999999999999999 1
0.275 -0.275 0.125 1
0.25 -0.25 0.15 1
0.225 -0.225 0.175 1
0.225 -0.225 0.225 1
0.2 -0.2 0.25 1
0.175 -0.175 0.275 1
0.15 -0.15 0.3 1
0.125 -0.125 0.325 1
0.1 -0.1 0.35 1
0.075 -0.075 0.375 1
0.05 -0.05 0.4 1
0.025 -0.025 0.425 1
0 0 0.45 1
-0.025 0.025 0.475 1
-0.05 0.05 0.5 1
-0.075 0.075 0.525 1
-0.1 0.1 0.55 1
-0.125 0.125 0.575 1
-0.15 0.15 0.6 1
-0.175 0.175 0.625 1
-0.2 0.2 0.65 1
-0.225 0.225 0.675 1
-0.25 0.25 0.7 1
-0.275 0.275 0.725 1
-0.3 0.3 0.75 1
-0.325 0.325 0.775 1
-0.35 0.35 0.8 1
0.625 -0.625 -0.175 1
0.6 -0.6 -0.15 1
0.575 -0.575 -0.125 1
0.55 -0.55 -0.1 1
0.525 -0.525 -0.0750000000000001 1
0.5 -0.5 -0.05 1
0.475 -0.475 -0.025 1
0.45 -0.45 -1.11022302462516e-16 1
0.425 -0.425 0.0249999999999999 1
0.4 -0.4 0.05 1
0.375 -0.375 0.075 1
0.35 -0.35 0.1 1
0.325 -0.325 0.125 1
0.3 -0.3 0.15 1
0.275 -0.275 0.175 1
0.25 -0.25 0.2 1
0.25 -0.25 0.25 1
0.225 -0.225 0.275 1
0.2 -0.2 0.3 1
0.175 -0.175 0.325 1
0.15 -0.15 0.35 1
0.125 -0.125 0.375 1
0.1 -0.1 0.4 1
0.075 -0.075 0.425 1
0.05 -0.05 0.45 1
0.025 -0.025 0.475 1
0 0 0.5 1
-0.025 0.025 0.525 1
-0.05 0.05 0.55 1
-0.075 0.075 0.575 1
-0.1 0.1 0.6 1
-0.125 0.125 0.625 1
-0.15 0.15 0.65 1
-0.175 0.175 0.675 1
-0.2 0.2 0.7 1
-0.225 0.225 0.725 1
-0.25 0.25 0.75 1
-0.275 0.275 0.775 1
-0.3 0.3 0.8 1
-0.325 0.325 0.825 1
0.65 -0.65 -0.15 1
0.625 -0.625 -0.125 1
0.6 -0.6 -0.1 1
0.575 -0.575 -0.0750000000000001 1
0.55 -0.55 -0.05 1
0.525 -0.525 -0.025 1
0.5 -0.5 0 1
0.475 -0.475 0.0249999999999999 1
0.45 -0.45 0.0499999999999998 1
0.425 -0.425 0.075 1
0.4 -0.4 0.1 1
0.375 -0.375 0.125 1
0.35 -0.35 0.15 1
0.325 -0.325 0.175 1
0.3 -0.3 0.2 1
0.275 -0.275 0.225 1
0.275 -0.275 0.275 1
0.25 -0.25 0.3 1
0.225 -0.225 0.325 1
0.2 -0.2 0.35 1
0.175 -0.175 0.375 1
0.15 -0.15 0.4 1
0.125 -0.125 0.425 1
0.1 -0.1 0.45 1
0.075 -0.075 0.475 1
0.05 -0.05 0.5 1
0.025 -0.025 0.525 1
0 0 0.55 1
-0.025 0.025 0.575 1
-0.05 0.05 0.6 1
-0.075 0.075 0.625 1
-0.1 0.1 0.65 1
-0.125 0.125 0.675 1
-0.15 0.15 0.7 1
-0.175 0.175 0.725 1
-0.2 0.2 0.75 1
-0.225 0.225 0.775 1
-0.25 0.25 0.8 1
-0.275 0.275 0.825 1
-0.3 0.3 0.85 1
0.675 -0.675 -0.125 1
0.65 -0.65 -0.1 1
0.625 -0.625 -0.0750000000000001 1
0.6 -0.6 -0.05 1
0.575 -0.575 -0.025 1
0.55 -0.55 0 1
0.525 -0.525 0.0249999999999999 1
0.5 -0.5 0.0499999999999998 1
0.475 -0.475 0.075 1
0.45 -0.45 0.1 1
0.425 -0.425 0.125 1
0.4 -0.4 0.15 1
0.375 -0.375 0.175 1
0.35 -0.35 0.2 1
0.325 -0.325 0.225 1
0.3 -0.3 0.25 1
0.3 -0.3 0.3 1
0.275 -0.275 0.325 1
0.25 -0.25 0.35 1
0.225 -0.225 0.375 1
0.2 -0.2 0.4 1
0.175 -0.175 0.425 1
0.15 -0.15 0.45 1
0.125 -0.125 0.475 1
0.1 -0.1 0.5 1
0.075 -0.075 0.525 1
0.05 -0.05 0.55 1
0.025 -0.025 0.575 1
0 0 0.6 1
-0.025 0.025 0.625 1
-0.05 0.05 0.65 1
-0.075 0.075 0.675 1
-0.1 0.1 0.7 1
-0.125 0.125 0.725 1
-0.15 0.15 0.75 1
-0.175 0.175 0.775 1
-0.2 0.2 0.8 1
-0.225 0.225 0.825 1
-0.25 0.25 0.85 1
-0.275 0.275 0.875 1
-0.3 0.3 0.9 1
0.675 -0.675 -0.075 1
0.65 -0.65 -0.05 1
0.625 -0.625 -0.025 1
0.6 -0.6 0 1
0.575 -0.575 0.0249999999999999 1
0.55 -0.55 0.05 1
0.525 -0.525 0.075 1
0.5 -0.5 0.1 1
0.475 -0.475 0.125 1
0.45 -0.45 0.15 1
0.425 -0.425 0.175 1
0.4 -0.4 0.2 1
0.375 -0.375 0.225 1
0.35 -0.35 0.25 1
0.325 -0.325 0.275 1
0.325 -0.325 0.325 1
0.3 -0.3 0.35 1
0.275 -0.275 0.375 1
0.25 -0.25 0.4 1
0.225 -0.225 0.425 1
0.2 -0.2 0.45 1
0.175 -0.175 0.475 1
0.15 -0.15 0.5 1
0.125 -0.125 0.525 1
0.1 -0.1 0.55 1
0.075 -0.075 0.575 1
0.05 -0.05 0.6 1
0.025 -0.025 0.625 1
0 0 0.65 1
-0.025 0.025 0.675 1
-0.05 0.05 0.7 1
-0.075 0.075 0.725 1
-0.1 0.1 0.75 1
-0.125 0.125 0.775 1
-0.15 0.15 0.8 1
-0.175 0.175 0.825 1
-0.2 0.2 0.85 1
-0.225 0.225 0.875 1
-0.25 0.25 0.9 1
-0.275 0.275 0.925 1
0.7 -0.7 -0.05 1
0.675 -0.675 -0.0250000000000001 1
0.65 -0.65 0 1
0.625 -0.625 0.0249999999999999 1
0.6 -0.6 0.05 1
0.575 -0.575 0.075 1
0.55 -0.55 0.0999999999999999 1
0.525 -0.525 0.125 1
0.5 -0.5 0.15 1
0.475 -0.475 0.175 1
0.45 -0.45 0.2 1
0.425 -0.425 0.225 1
0.4 -0.4 0.25 1
0.375 -0.375 0.275 1
0.35 -0.35 0.3 1
0.35 -0.35 0.35 1
0.325 -0.325 0.375 1
0.3 -0.3 0.4 1
0.275 -0.275 0.425 1
0.25 -0.25 0.45 1
0.225 -0.225 0.475 1
0.2 -0.2 0.5 1
0.175 -0.175 0.525 1
0.15 -0.15 0.55 1
0.125 -0.125 0.575 1
0.1 -0.1 0.6 1
0.075 -0.075 0.625 1
0.05 -0.05 0.65 1
0.025 -0.025 0.675 1
0 0 0.7 1
-0.025 0.025 0.725 1
-0.05 0.05 0.75 1
-0.075 0.075 0.775 1
-0.1 0.1 0.8 1
-0.125 0.125 0.825 1
-0.15 0.15 0.85 1
-0.175 0.175 0.875 1
-0.2 0.2 0.9 1
-0.225 0.225 0.925 1
-0.25 0.25 0.95 1
0.725 -0.725 -0.0249999999999999 1
0.7 -0.7 0 1
0.675 -0.675 0.0249999999999999 1
0.65 -0.65 0.05 1
0.625 -0.625 0.075 1
0.6 -0.6 0.1 1
0.575 -0.575 0.125 1
0.55 -0.55 0.15 1
0.525 -0.525 0.175 1
0.5 -0.5 0.2 1
0.475 -0.475 0.225 1
0.45 -0.45 0.25 1
0.425 -0.425 0.275 1
0.4 -0.4 0.3 1
0.375 -0.375 0.325 1
0.375 -0.375 0.375 1
0.35 -0.35 0.4 1
0.325 -0.325 0.425 1
0.3 -0.3 0.45 1
0.275 -0.275 0.475 1
0.25 -0.25 0.5 1
0.225 -0.225 0.525 1
0.2 -0.2 0.55 1
0.175 -0.175 0.575 1
0.15 -0.15 0.6 1
0.125 -0.125 0.625 1
0.1 -0.1 0.65 1
0.075 -0.075 0.675 1
0.05 -0.05 0.7 1
0.025 -0.025 0.725 1
0 0 0.75 1
-0.025 0.025 0.775 1
-0.05 0.05 0.8 1
-0.075 0.075 0.825 1
-0.1 0.1 0.85 1
-0.125 0.125 0.875 1
-0.15 0.15 0.9 1
-0.175 0.175 0.925 1
-0.2 0.2 0.95 1
-0.225 0.225 0.975 1
-0.25 0.25 1 1
0.725 -0.725 0.0249999999999999 1
0.7 -0.7 0.0499999999999998 1
0.675 -0.675 0.075 1
0.65 -0.65 0.1 1
0.625 -0.625 0.125 1
0.6 -0.6 0.15 1
0.575 -0.575 0.175 1
0.55 -0.55 0.2 1
0.525 -0.525 0.225 1
0.5 -0.5 0.25 1
0.475 -0.475 0.275 1
0.45 -0.45 0.3 1
0.425 -0.425 0.325 1
0.4 -0.4 0.35 1
0.4 -0.4 0.4 1
0.375 -0.375 0.425 1
0.35 -0.35 0.45 1
0.325 -0.325 0.475 1
0.3 -0.3 0.5 1
0.275 -0.275 0.525 1
0.25 -0.25 0.55 1
0.225 -0.225 0.575 1
0.2 -0.2 0.6 1
0.175 -0.175 0.625 1
0.15 -0.15 0.65 1
0.125 -0.125 0.675 1
0.1 -0.1 0.7 1
0.075 -0.075 0.725 1
0.05 -0.05 0.75 1
0.025 -0.025 0.775 1
0 0 0.8 1
-0.025 0.025 0.825 1
-0.05 0.05 0.85 1
-0.075 0.075 0.875 1
-0.0999999999999999 0.0999999999999999 0.9 1
-0.125 0.125 0.925 1
-0.15 0.15 0.95 1
-0.175 0.175 0.975 1
-0.2 0.2 1 1
-0.225 0.225 -0.975 1
-0.25 0.25 -0.95 1
-0.275 0.275 -0.925 1
-0.3 0.3 -0.9 1
0.675 -0.675 0.125 1
0.65 -0.65 0.15 1
0.625 -0.625 0.175 1
0.6 -0.6 0.2 1
0.575 -0.575 0.225 1
0.55 -0.55 0.25 1
0.525 -0.525 0.275 1
0.5 -0.5 0.3 1
0.475 -0.475 0.325 1
0.45 -0.45 0.35 1
0.425 -0.425 0.375 1
0.425 -0.425 0.425 1
0.4 -0.4 0.45 1
0.375 -0.375 0.475 1
0.35 -0.35 0.5 1
0.325 -0.325 0.525 1
0.3 -0.3 0.55 1
0.275 -0.275 0.575 1
0.25 -0.25 0.6 1
0.225 -0.225 0.625 1
0.2 -0.2 0.65 1
0.175 -0.175 0.675 1
0.15 -0.15 0.7 1
0.125 -0.125 0.725 1
0.1 -0.1 0.75 1
0.075 -0.075 0.775 1
0.05 -0.05 0.8 1
0.025 -0.025 0.825 1
0 0 0.85 1
-0.025 0.025 0.875 1
-0.05 0.05 0.9 1
-0.0749999999999999 0.0749999999999999 0.925 1
-0.0999999999999999 0.0999999999999999 0.95 1
-0.125 0.125 0.975 1
-0.15 0.15 1 1
-0.175 0.175 -0.975 1
-0.2 0.2 -0.95 1
-0.225 0.225 -0.925 1
-0.25 0.25 -0.9 1
-0.275 0.275 -0.875 1
-0.3 0.3 -0.85 1
-0.325 0.325 -0.825 1
-0.35 0.35 -0.8 1
0.625 -0.625 0.225 1
0.6 -0.6 0.25 1
0.575 -0.575 0.275 1
0.55 -0.55 0.3 1
0.525 -0.525 0.325 1
0.5 -0.5 0.35 1
0.475 -0.475 0.375 1
0.45 -0.45 0.4 1
0.45 -0.45 0.45 1
0.425 -0.425 0.475 1
0.4 -0.4 0.5 1
0.375 -0.375 0.525 1
0.35 -0.35 0.55 1
0.325 -0.325 0.575 1
0.3 -0.3 0.6 1
0.275 -0.275 0.625 1
0.25 -0.25 0.65 1
0.225 -0.225 0.675 1
0.2 -0.2 0.7 1
0.175 -0.175 0.725 1
0.15 -0.15 0.75 1
0.125 -0.125 0.775 1
0.1 -0.1 0.8 1
0.075 -0.075 0.825 1
0.05 -0.05 0.85 1
0.025 -0.025 0.875 1
0 0 0.9 1
-0.025 0.025 0.925 1
-0.0499999999999999 0.0499999999999999 0.95 1
-0.0749999999999999 0.0749999999999999 0.975 1
-0.0999999999999999 0.0999999999999999 1 1
-0.125 0.125 -0.975 1
-0.15 0.15 -0.95 1
-0.175 0.175 -0.925 1
-0.2 0.2 -0.9 1
-0.225 0.225 -0.875 1
-0.25 0.25 -0.85 1
-0.275 0.275 -0.825 1
-0.3 0.3 -0.8 1
-0.325 0.325 -0.775 1
-0.35 0.35 -0.75 1
-0.375 0.375 -0.725 1
-0.4 0.4 -0.7 1
0.575 -0.575 0.325 1
0.55 -0.55 0.35 1
0.525 -0.525 0.375 1
0.5 -0.5 0.4 1
0.475 -0.475 0.425 1
0.475 -0.475 0.475 1
0.45 -0.45 0.5 1
0.425 -0.425 0.525 1
0.4 -0.4 0.55 1
0.375 -0.375 0.575 1
0.35 -0.35 0.6 1
0.325 -0.325 0.625 1
0.3 -0.3 0.65 1
0.275 -0.275 0.675 1
0.25 -0.25 0.7 1
0.225 -0.225 0.725 1
0.2 -0.2 0.75 1
0.175 -0.175 0.775 1
0.15 -0.15 0.8 1
0.125 -0.125 0.825 1
0.1 -0.1 0.85 1
0.075 -0.075 0.875 1
0.05 -0.05 0.9 1
0.025 -0.025 0.925 1
0 0 0.95 1
-0.0249999999999999 0.0249999999999999 0.975 1
-0.0499999999999999 0.0499999999999999 1 1
-0.075 0.075 -0.975 1
-0.0999999999999999 0.0999999999999999 -0.95 1
-0.125 0.125 -0.925 1
-0.15 0.15 -0.9 1
-0.175 0.175 -0.875 1
-0.2 0.2 -0.85 1
-0.225 0.225 -0.825 1
-0.25 0.25 -0.8 1
-0.275 0.275 -0.775 1
-0.3 0.3 -0.75 1
-0.325 0.325 -0.725 1
-0.35 0.35 -0.7 1
-0.375 0.375 -0.675 1
-0.4 0.4 -0.65 1
-0.425 0.425 -0.625 1
-0.45 0.45 -0.6 1
0.525 -0.525 0.425 1
0.5 -0.5 0.45 1
0.5 -0.5 0.5 1
0.475 -0.475 0.525 1
0.45 -0.45 0.55 1
0.425 -0.425 0.575 1
0.4 -0.4 0.6 1
0.375 -0.375 0.625 1
0.35 -0.35 0.65 1
0.325 -0.325 0.675 1
0.3 -0.3 0.7 1
0.275 -0.275 0.725 1
0.25 -0.25 0.75 1
0.225 -0.225 0.775 1
0.2 -0.2 0.8 1
0.175 -0.175 0.825 1
0.15 -0.15 0.85 1
0.125 -0.125 0.875 1
0.0999999999999999 -0.0999999999999999 0.9 1
0.0749999999999999 -0.0749999999999999 0.925 1
0.0499999999999999 -0.0499999999999999 0.95 1
0.0249999999999999 -0.0249999999999999 0.975 1
0 0 1 1
-0.0249999999999999 0.0249999999999999 -0.975 1
-0.05 0.05 -0.95 1
-0.075 0.075 -0.925 1
-0.1 0.1 -0.9 1
-0.125 0.125 -0.875 1
-0.15 0.15 -0.85 1
-0.175 0.175 -0.825 1
-0.2 0.2 -0.8 1
-0.225 0.225 -0.775 1
-0.25 0.25 -0.75 1
-0.275 0.275 -0.725 1
-0.3 0.3 -0.7 1
-0.325 0.325 -0.675 1
-0.35 0.35 -0.65 1
-0.375 0.375 -0.625 1
-0.4 0.4 -0.6 1
-0.425 0.425 -0.575 1
-0.45 0.45 -0.55 1
-0.475 0.475 -0.525 1
-0.475 0.475 -0.475 1
-0.5 0.5 -0.45 1
-0.525 0.525 -0.425 1
0.45 -0.45 0.6 1
0.425 -0.425 0.625 1
0.4 -0.4 0.65 1
0.375 -0.375 0.675 1
0.35 -0.35 0.7 1
0.325 -0.325 0.725 1
0.3 -0.3 0.75 1
0.275 -0.275 0.775 1
0.25 -0.25 0.8 1
0.225 -0.225 0.825 1
0.2 -0.2 0.85 1
0.175 -0.175 0.875 1
0.15 -0.15 0.9 1
0.125 -0.125 0.925 1
0.0999999999999999 -0.0999999999999999 0.95 1
0.0749999999999999 -0.0749999999999999 0.975 1
0.0499999999999999 -0.0499999999999999 1 1
0.0249999999999999 -0.0249999999999999 -0.975 1
0 0 -0.95 1
-0.025 0.025 -0.925 1
-0.05 0.05 -0.9 1
-0.0750000000000001 0.0750000000000001 -0.875 1
-0.1 0.1 -0.85 1
-0.125 0.125 -0.825 1
-0.15 0.15 -0.8 1
-0.175 0.175 -0.775 1
-0.2 0.2 -0.75 1
-0.225 0.225 -0.725 1
-0.25 0.25 -0.7 1
-0.275 0.275 -0.675 1
-0.3 0.3 -0.65 1
-0.325 0.325 -0.625 1
-0.35 0.35 -0.6 1
-0.375 0.375 -0.575 1
-0.4 0.4 -0.55 1
-0.425 0.425 -0.525 1
-0.45 0.45 -0.5 1
-0.45 0.45 -0.45 1
-0.475 0.475 -0.425 1
-0.5 0.5 -0.4 1
-0.525 0.525 -0.375 1
-0.55 0.55 -0.35 1
-0.575 0.575 -0.325 1
0.4 -0.4 0.7 1
0.375 -0.375 0.725 1
0.35 -0.35 0.75 1
0.325 -0.325 0.775 1
0.3 -0.3 0.8 1
0.275 -0.275 0.825 1
0.25 -0.25 0.85 1
0.225 -0.225 0.875 1
0.2 -0.2 0.9 1
0.175 -0.175 0.925 1
0.15 -0.15 0.95 1
0.125 -0.125 0.975 1
0.0999999999999999 -0.0999999999999999 1 1
0.075 -0.075 -0.975 1
0.05 -0.05 -0.95 1
0.0249999999999999 -0.0249999999999999 -0.925 1
0 0 -0.9 1
-0.025 0.025 -0.875 1
-0.05 0.05 -0.85 1
-0.0750000000000001 0.0750000000000001 -0.825 1
-0.1 0.1 -0.8 1
-0.125 0.125 -0.775 1
-0.15 0.15 -0.75 1
-0.175 0.175 -0.725 1
-0.2 0.2 -0.7 1
-0.225 0.225 -0.675 1
-0.25 0.25 -0.65 1
-0.275 0.275 -0.625 1
-0.3 0.3 -0.6 1
-0.325 0.325 -0.575 1
-0.35 0.35 -0.55 1
-0.375 0.375 -0.525 1
-0.4 0.4 -0.5 1
-0.425 0.425 -0.475 1
-0.425 0.425 -0.425 1
-0.45 0.45 -0.4 1
-0.475 0.475 -0.375 1
-0.5 0.5 -0.35 1
-0.525 0.525 -0.325 1
-0.55 0.55 -0.3 1
-0.575 0.575 -0.275 1
-0.6 0.6 -0.25 1
-0.625 0.625 -0.225 1
0.35 -0.35 0.8 1
0.325 -0.325 0.825 1
0.3 -0.3 0.85 1
0.275 -0.275 0.875 1
0.25 -0.25 0.9 1
0.225 -0.225 0.925 1
0.2 -0.2 0.95 1
0.175 -0.175 0.975 1
0.15 -0.15 1 1
0.125 -0.125 -0.975 1
0.0999999999999999 -0.0999999999999999 -0.95 1
0.075 -0.075 -0.925 1
0.05 -0.05 -0.9 1
0.0249999999999999 -0.0249999999999999 -0.875 1
0 0 -0.85 1
-0.025 0.025 -0.825 1
-0.05 0.05 -0.8 1
-0.075 0.075 -0.775 1
-0.1 0.1 -0.75 1
-0.125 0.125 -0.725 1
-0.15 0.15 -0.7 1
-0.175 0.175 -0.675 1
-0.2 0.2 -0.65 1
-0.225 0.225 -0.625 1
-0.25 0.25 -0.6 1
-0.275 0.275 -0.575 1
-0.3 0.3 -0.55 1
-0.325 0.325 -0.525 1
-0.35 0.35 -0.5 1
-0.375 0.375 -0.475 1
-0.4 0.4 -0.45 1
-0.4 0.4 -0.4 1
-0.425 0.425 -0.375 1
-0.45 0.45 -0.35 1
-0.475 0.475 -0.325 1
-0.5 0.5 -0.3 1
-0.525 0.525 -0.275 1
-0.55 0.55 -0.25 1
-0.575 0.575 -0.225 1
-0.6 0.6 -0.2 1
-0.625 0.625 -0.175 1
-0.65 0.65 -0.15 1
-0.675 0.675 -0.125 1
0.3 -0.3 0.9 1
0.275 -0.275 0.925 1
0.25 -0.25 0.95 1
0.225 -0.225 0.975 1
0.2 -0.2 1 1
0.175 -0.175 -0.975 1
0.15 -0.15 -0.95 1
0.125 -0.125 -0.925 1
0.1 -0.1 -0.9 1
0.0750000000000002 -0.0750000000000002 -0.875 1
0.05 -0.05 -0.85 1
0.0249999999999999 -0.0249999999999999 -0.825 1
0 0 -0.8 1
-0.025 0.025 -0.775 1
-0.0499999999999999 0.0499999999999999 -0.75 1
-0.075 0.075 -0.725 1
-0.1 0.1 -0.7 1
-0.125 0.125 -0.675 1
-0.15 0.15 -0.65 1
-0.175 0.175 -0.625 1
-0.2 0.2 -0.6 1
-0.225 0.225 -0.575 1
-0.25 0.25 -0.55 1
-0.275 0.275 -0.525 1
-0.3 0.3 -0.5 1
-0.325 0.325 -0.475 1
-0.35 0.35 -0.45 1
-0.375 0.375 -0.425 1
-0.375 0.375 -0.375 1
-0.4 0.4 -0.35 1
-0.425 0.425 -0.325 1
-0.45 0.45 -0.3 1
-0.475 0.475 -0.275 1
-0.5 0.5 -0.25 1
-0.525 0.525 -0.225 1
-0.55 0.55 -0.2 1
-0.575 0.575 -0.175 1
-0.6 0.6 -0.15 1
-0.625 0.625 -0.125 1
-0.65 0.65 -0.1 1
-0.675 0.675 -0.075 1
-0.7 0.7 -0.05 1
-0.725 0.725 -0.0249999999999999 1
0.25 -0.25 1 1
0.225 -0.225 -0.975 1
0.2 -0.2 -0.95 1
0.175 -0.175 -0.925 1
0.15 -0.15 -0.9 1
0.125 -0.125 -0.875 1
0.1 -0.1 -0.85 1
0.0750000000000002 -0.0750000000000002 -0.825 1
0.05 -0.05 -0.8 1
0.0249999999999999 -0.0249999999999999 -0.775 1
0 0 -0.75 1
-0.0249999999999999 0.0249999999999999 -0.725 1
-0.0499999999999999 0.0499999999999999 -0.7 1
-0.075 0.075 -0.675 1
-0.1 0.1 -0.65 1
-0.125 0.125 -0.625 1
-0.15 0.15 -0.6 1
-0.175 0.175 -0.575 1
-0.2 0.2 -0.55 1
-0.225 0.225 -0.525 1
-0.25 0.25 -0.5 1
-0.275 0.275 -0.475 1
-0.3 0.3 -0.45 1
-0.325 0.325 -0.425 1
-0.35 0.35 -0.4 1
-0.35 0.35 -0.35 1
-0.375 0.375 -0.325 1
-0.4 0.4 -0.3 1
-0.425 0.425 -0.275 1
-0.45 0.45 -0.25 1
-0.475 0.475 -0.225 1
-0.5 0.5 -0.2 1
-0.525 0.525 -0.175 1
-0.55 0.55 -0.15 1
-0.575 0.575 -0.125 1
-0.6 0.6 -0.1 1
-0.625 0.625 -0.0750000000000001 1
-0.65 0.65 -0.05 1
-0.675 0.675 -0.0250000000000001 1
-0.7 0.7 0 1
-0.725 0.725 0.0249999999999999 1
0.25 -0.25 -0.95 1
0.225 -0.225 -0.925 1
0.2 -0.2 -0.9 1
0.175 -0.175 -0.875 1
0.15 -0.15 -0.85 1
0.125 -0.125 -0.825 1
0.1 -0.1 -0.8 1
0.075 -0.075 -0.775 1
0.0499999999999998 -0.0499999999999998 -0.75 1
0.0249999999999999 -0.0249999999999999 -0.725 1
0 0 -0.7 1
-0.025 0.025 -0.675 1
-0.05 0.05 -0.65 1
-0.0750000000000001 0.0750000000000001 -0.625 1
-0.1 0.1 -0.6 1
-0.125 0.125 -0.575 1
-0.15 0.15 -0.55 1
-0.175 0.175 -0.525 1
-0.2 0.2 -0.5 1
-0.225 0.225 -0.475 1
-0.25 0.25 -0.45 1
-0.275 0.275 -0.425 1
-0.3 0.3 -0.4 1
-0.325 0.325 -0.375 1
-0.325 0.325 -0.325 1
-0.35 0.35 -0.3 1
-0.375 0.375 -0.275 1
-0.4 0.4 -0.25 1
-0.425 0.425 -0.225 1
-0.45 0.45 -0.2 1
-0.475 0.475 -0.175 1
-0.5 0.5 -0.15 1
-0.525 0.525 -0.125 1
-0.55 0.55 -0.1 1
-0.575 0.575 -0.0750000000000001 1
-0.6 0.6 -0.05 1
-0.625 0.625 -0.025 1
-0.65 0.65 0 1
-0.675 0.675 0.0249999999999999 1
-0.7 0.7 0.0499999999999998 1
0.275 -0.275 -0.925 1
0.25 -0.25 -0.9 1
0.225 -0.225 -0.875 1
0.2 -0.2 -0.85 1
0.175 -0.175 -0.825 1
0.15 -0.15 -0.8 1
0.125 -0.125 -0.775 1
0.1 -0.1 -0.75 1
0.075 -0.075 -0.725 1
0.0499999999999998 -0.0499999999999998 -0.7 1
0.0249999999999999 -0.0249999999999999 -0.675 1
0 0 -0.65 1
-0.025 0.025 -0.625 1
-0.05 0.05 -0.6 1
-0.0750000000000001 0.0750000000000001 -0.575 1
-0.1 0.1 -0.55 1
-0.125 0.125 -0.525 1
-0.15 0.15 -0.5 1
-0.175 0.175 -0.475 1
-0.2 0.2 -0.45 1
-0.225 0.225 -0.425 1
-0.25 0.25 -0.4 1
-0.275 0.275 -0.375 1
-0.3 0.3 -0.35 1
-0.3 0.3 -0.3 1
-0.325 0.325 -0.275 1
-0.35 0.35 -0.25 1
-0.375 0.375 -0.225 1
-0.4 0.4 -0.2 1
-0.425 0.425 -0.175 1
-0.45 0.45 -0.15 1
-0.475 0.475 -0.125 1
-0.5 0.5 -0.1 1
-0.525 0.525 -0.0750000000000001 1
-0.55 0.55 -0.05 1
-0.575 0.575 -0.025 1
-0.6 0.6 0 1
-0.625 0.625 0.0249999999999999 1
-0.65 0.65 0.05 1
-0.675 0.675 0.075 1
0.3 -0.3 -0.9 1
0.275 -0.275 -0.875 1
0.25 -0.25 -0.85 1
0.225 -0.225 -0.825 1
0.2 -0.2 -0.8 1
0.175 -0.175 -0.775 1
0.15 -0.15 -0.75 1
0.125 -0.125 -0.725 1
0.1 -0.1 -0.7 1
0.075 -0.075 -0.675 1
0.05 -0.05 -0.65 1
0.0249999999999999 -0.0249999999999999 -0.625 1
0 0 -0.6 1
-0.025 0.025 -0.575 1
-0.05 0.05 -0.55 1
-0.075 0.075 -0.525 1
-0.1 0.1 -0.5 1
-0.125 0.125 -0.475 1
-0.15 0.15 -0.45 1
-0.175 0.175 -0.425 1
-0.2 0.2 -0.4 1
-0.225 0.225 -0.375 1
-0.25 0.25 -0.35 1
-0.275 0.275 -0.325 1
-0.275 0.275 -0.275 1
-0.3 0.3 -0.25 1
-0.325 0.325 -0.225 1
-0.35 0.35 -0.2 1
-0.375 0.375 -0.175 1
-0.4 0.4 -0.15 1
-0.425 0.425 -0.125 1
-0.45 0.45 -0.1 1
-0.475 0.475 -0.075 1
-0.5 0.5 -0.05 1
-0.525 0.525 -0.025 1
-0.55 0.55 0 1
-0.575 0.575 0.0249999999999999 1
-0.6 0.6 0.05 1
-0.625 0.625 0.075 1
-0.65 0.65 0.1 1
-0.675 0.675 0.125 1
0.3 -0.3 -0.85 1
0.275 -0.275 -0.825 1
0.25 -0.25 -0.8 1
0.225 -0.225 -0.775 1
0.2 -0.2 -0.75 1
0.175 -0.175 -0.725 1
0.15 -0.15 -0.7 1
0.125 -0.125 -0.675 1
0.1 -0.1 -0.65 1
0.0750000000000002 -0.0750000000000002 -0.625 1
0.05 -0.05 -0.6 1
0.0249999999999999 -0.0249999999999999 -0.575 1
0 0 -0.55 1
-0.025 0.025 -0.525 1
-0.0499999999999999 0.0499999999999999 -0.5 1
-0.075 0.075 -0.475 1
-0.1 0.1 -0.45 1
-0.125 0.125 -0.425 1
-0.15 0.15 -0.4 1
-0.175 0.175 -0.375 1
-0.2 0.2 -0.35 1
-0.225 0.225 -0.325 1
-0.25 0.25 -0.3 1
-0.25 0.25 -0.25 1
-0.275 0.275 -0.225 1
-0.3 0.3 -0.2 1
-0.325 0.325 -0.175 1
-0.35 0.35 -0.15 1
-0.375 0.375 -0.125 1
-0.4 0.4 -0.1 1
-0.425 0.425 -0.075 1
-0.45 0.45 -0.05 1
-0.475 0.475 -0.025 1
-0.5 0.5 0 1
-0.525 0.525 0.0249999999999999 1
-0.55 0.55 0.05 1
-0.575 0.575 0.075 1
-0.6 0.6 0.1 1
-0.625 0.625 0.125 1
-0.65 0.65 0.15 1
0.325 -0.325 -0.825 1
0.3 -0.3 -0.8 1
0.275 -0.275 -0.775 1
0.25 -0.25 -0.75 1
0.225 -0.225 -0.725 1
0.2 -0.2 -0.7 1
0.175 -0.175 -0.675 1
0.15 -0.15 -0.65 1
0.125 -0.125 -0.625 1
0.1 -0.1 -0.6 1
0.0750000000000002 -0.0750000000000002 -0.575 1
0.05 -0.05 -0.55 1
0.0249999999999999 -0.0249999999999999 -0.525 1
0 0 -0.5 1
-0.0249999999999999 0.0249999999999999 -0.475 1
-0.0499999999999999 0.0499999999999999 -0.45 1
-0.075 0.075 -0.425 1
-0.1 0.1 -0.4 1
-0.125 0.125 -0.375 1
-0.15 0.15 -0.35 1
-0.175 0.175 -0.325 1
-0.2 0.2 -0.3 1
-0.225 0.225 -0.275 1
-0.225 0.225 -0.225 1
-0.25 0.25 -0.2 1
-0.275 0.275 -0.175 1
-0.3 0.3 -0.15 1
-0.325 0.325 -0.125 1
-0.35 0.35 -0.1 1
-0.375 0.375 -0.0750000000000001 1
-0.4 0.4 -0.05 1
-0.425 0.425 -0.0250000000000001 1
-0.45 0.45 -1.11022302462516e-16 1
-0.475 0.475 0.0249999999999999 1
-0.5 0.5 0.0499999999999998 1
-0.525 0.525 0.075 1
-0.55 0.55 0.0999999999999999 1
-0.575 0.575 0.125 1
-0.6 0.6 0.15 1
-0.625 0.625 0.175 1
0.35 -0.35 -0.8 1
0.325 -0.325 -0.775 1
0.3 -0.3 -0.75 1
0.275 -0.275 -0.725 1
0.25 -0.25 -0.7 1
0.225 -0.225 -0.675 1
0.2 -0.2 -0.65 1
0.175 -0.175 -0.625 1
0.15 -0.15 -0.6 1
0.125 -0.125 -0.575 1
0.1 -0.1 -0.55 1
0.075 -0.075 -0.525 1
0.0499999999999998 -0.0499999999999998 -0.5 1
0.0249999999999999 -0.0249999999999999 -0.475 1
0 0 -0.45 1
-0.025 0.025 -0.425 1
-0.05 0.05 -0.4 1
-0.0750000000000001 0.0750000000000001 -0.375 1
-0.1 0.1 -0.35 1
-0.125 0.125 -0.325 1
-0.15 0.15 -0.3 1
-0.175 0.175 -0.275 1
-0.2 0.2 -0.25 1
-0.2 0.2 -0.2 1
-0.225 0.225 -0.175 1
-0.25 0.25 -0.15 1
-0.275 0.275 -0.125 1
-0.3 0.3 -0.1 1
-0.325 0.325 -0.0750000000000001 1
-0.35 0.35 -0.05 1
-0.375 0.375 -0.025 1
-0.4 0.4 0 1
-0.425 0.425 0.0249999999999999 1
-0.45 0.45 0.0499999999999998 1
-0.475 0.475 0.075 1
-0.5 0.5 0.1 1
-0.525 0.525 0.125 1
-0.55 0.55 0.15 1
-0.575 0.575 0.175 1
-0.6 0.6 0.2 1
-0.625 0.625 0.225 1
0.35 -0.35 -0.75 1
0.325 -0.325 -0.725 1
0.3 -0.3 -0.7 1
0.275 -0.275 -0.675 1
0.25 -0.25 -0.65 1
0.225 -0.225 -0.625 1
0.2 -0.2 -0.6 1
0.175 -0.175 -0.575 1
0.15 -0.15 -0.55 1
0.125 -0.125 -0.525 1
0.1 -0.1 -0.5 1
0.075 -0.075 -0.475 1
0.0499999999999998 -0.0499999999999998 -0.45 1
0.0249999999999999 -0.0249999999999999 -0.425 1
0 0 -0.4 1
-0.025 0.025 -0.375 1
-0.05 0.05 -0.35 1
-0.0750000000000001 0.0750000000000001 -0.325 1
-0.1 0.1 -0.3 1
-0.125 0.125 -0.275 1
-0.15 0.15 -0.25 1
-0.175 0.175 -0.225 1
-0.175 0.175 -0.175 1
-0.2 0.2 -0.15 1
-0.225 0.225 -0.125 1
-0.25 0.25 -0.1 1
-0.275 0.275 -0.0750000000000001 1
-0.3 0.3 -0.05 1
-0.325 0.325 -0.025 1
-0.35 0.35 0 1
-0.375 0.375 0.0249999999999999 1
-0.4 0.4 0.05 1
-0.425 0.425 0.075 1
-0.45 0.45 0.1 1
-0.475 0.475 0.125 1
-0.5 0.5 0.15 1
-0.525 0.525 0.175 1
-0.55 0.55 0.2 1
-0.575 0.575 0.225 1
-0.6 0.6 0.25 1
0.375 -0.375 -0.725 1
0.35 -0.35 -0.7 1
0.325 -0.325 -0.675 1
0.3 -0.3 -0.65 1
0.275 -0.275 -0.625 1
0.25 -0.25 -0.6 1
0.225 -0.225 -0.575 1
0.2 -0.2 -0.55 1
0.175 -0.175 -0.525 1
0.15 -0.15 -0.5 1
0.125 -0.125 -0.475 1
0.1 -0.1 -0.45 1
0.075 -0.075 -0.425 1
0.05 -0.05 -0.4 1
0.0249999999999999 -0.0249999999999999 -0.375 1
0 0 -0.35 1
-0.025 0.025 -0.325 1
-0.05 0.05 -0.3 1
-0.075 0.075 -0.275 1
-0.1 0.1 -0.25 1
-0.125 0.125 -0.225 1
-0.15 0.15 -0.2 1
-0.15 0.15 -0.15 1
-0.175 0.175 -0.125 1
-0.2 0.2 -0.1 1
-0.225 0.225 -0.075 1
-0.25 0.25 -0.05 1
-0.275 0.275 -0.025 1
-0.3 0.3 0 1
-0.325 0.325 0.0249999999999999 1
-0.35 0.35 0.05 1
-0.375 0.375 0.075 1
-0.4 0.4 0.1 1
-0.425 0.425 0.125 1
-0.45 0.45 0.15 1
-0.475 0.475 0.175 1
-0.5 0.5 0.2 1
-0.525 0.525 0.225 1
-0.55 0.55 0.25 1
-0.575 0.575 0.275 1
0.4 -0.4 -0.7 1
0.375 -0.375 -0.675 1
0.35 -0.35 -0.65 1