343
343
0 0 0 1
-0.142857142857143 0.142857142857143 0.142857142857143 1
-0.285714285714286 0.285714285714286 0.285714285714286 1
-0.428571428571429 0.428571428571429 0.428571428571429 1
0.428571428571428 -0.428571428571428 -0.428571428571428 1
0.285714285714286 -0.285714285714286 -0.285714285714286 1
0.142857142857143 -0.142857142857143 -0.142857142857143 1
0.142857142857143 -0.142857142857143 0.142857142857143 1
0 0 0.285714285714286 1
-0.142857142857143 0.142857142857143 0.428571428571429 1
-0.285714285714286 0.285714285714286 0.571428571428571 1
0.571428571428571 -0.571428571428571 -0.285714285714286 1
0.428571428571428 -0.428571428571428 -0.142857142857143 1
0.285714285714286 -0.285714285714286 0 1
0.285714285714286 -0.285714285714286 0.285714285714286 1
0.142857142857143 -0.142857142857143 0.428571428571429 1
0 0 0.571428571428571 1
-0.142857142857143 0.142857142857143 0.714285714285714 1
-0.285714285714286 0.285714285714286 0.857142857142857 1
0.571428571428571 -0.571428571428571 0 1
0.428571428571428 -0.428571428571428 0.142857142857143 1
0.428571428571429 -0.428571428571429 0.428571428571429 1
0.285714285714286 -0.285714285714286 0.571428571428571 1
0.142857142857143 -0.142857142857143 0.714285714285714 1
0 0 0.857142857142857 1
-0.142857142857143 0.142857142857143 1 1
-0.285714285714286 0.285714285714286 -0.857142857142857 1
0.571428571428571 -0.571428571428571 0.285714285714286 1
-0.428571428571428 0.428571428571428 -0.428571428571428 1
-0.571428571428571 0.571428571428571 -0.285714285714286 1
0.285714285714286 -0.285714285714286 0.857142857142857 1
0.142857142857143 -0.142857142857143 1 1
0 0 -0.857142857142857 1
-0.142857142857143 0.142857142857143 -0.714285714285714 1
-0.285714285714286 0.285714285714286 -0.571428571428571 1
-0.285714285714286 0.285714285714286 -0.285714285714286 1
-0.428571428571428 0.428571428571428 -0.142857142857143 1
-0.571428571428571 0.571428571428571 0 1
0.285714285714286 -0.285714285714286 -0.857142857142857 1
0.142857142857143 -0.142857142857143 -0.714285714285714 1
0 0 -0.571428571428571 1
-0.142857142857143 0.142857142857143 -0.428571428571428 1
-0.142857142857143 0.142857142857143 -0.142857142857143 1
-0.285714285714286 0.285714285714286 0 1
-0.428571428571428 0.428571428571428 0.142857142857143 1
-0.571428571428571 0.571428571428571 0.285714285714286 1
0.285714285714286 -0.285714285714286 -0.571428571428571 1
0.142857142857143 -0.142857142857143 -0.428571428571428 1
0 0 -0.285714285714286 1
0.142857142857143 0.142857142857143 -0.142857142857143 1
0 0.285714285714286 0 1
-0.142857142857143 0.428571428571429 0.142857142857143 1
-0.285714285714286 0.571428571428571 0.285714285714286 1
0.571428571428571 -0.285714285714286 -0.571428571428571 1
0.428571428571428 -0.142857142857143 -0.428571428571428 1
0.285714285714286 0 -0.285714285714286 1
0.285714285714286 0 0 1
0.142857142857143 0.142857142857143 0.142857142857143 1
0 0.285714285714286 0.285714285714286 1
-0.142857142857143 0.428571428571429 0.428571428571429 1
-0.285714285714286 0.571428571428572 0.571428571428572 1
0.571428571428571 -0.285714285714286 -0.285714285714286 1
0.428571428571428 -0.142857142857143 -0.142857142857143 1
0.428571428571429 -0.142857142857143 0.142857142857143 1
0.285714285714286 0 0.285714285714286 1
0.142857142857143 0.142857142857143 0.428571428571429 1
-5.55111512312578e-17 0.285714285714286 0.571428571428571 1
-0.142857142857143 0.428571428571429 0.714285714285714 1
0.714285714285714 -0.428571428571428 -0.142857142857143 1
0.571428571428571 -0.285714285714286 0 1
0.571428571428571 -0.285714285714286 0.285714285714286 1
0.428571428571429 -0.142857142857143 0.428571428571429 1
0.285714285714286 -5.55111512312578e-17 0.571428571428571 1
0.142857142857143 0.142857142857143 0.714285714285714 1
-5.55111512312578e-17 0.285714285714286 0.857142857142857 1
0.857142857142857 -0.571428571428571 2.22044604925031e-16 1
0.714285714285714 -0.428571428571429 0.142857142857143 1
-0.285714285714286 0.571428571428571 -0.571428571428571 1
0.571428571428572 -0.285714285714286 0.571428571428572 1
0.428571428571429 -0.142857142857143 0.714285714285714 1
0.285714285714286 -5.55111512312578e-17 0.857142857142857 1
0.142857142857143 0.142857142857143 -1 1
0 0.285714285714286 -0.857142857142857 1
-0.142857142857143 0.428571428571429 -0.714285714285714 1
-0.142857142857143 0.428571428571428 -0.428571428571428 1
-0.285714285714286 0.571428571428571 -0.285714285714286 1
-0.428571428571428 0.714285714285714 -0.142857142857143 1
-0.571428571428571 0.857142857142857 2.22044604925031e-16 1
0.285714285714286 0 -0.857142857142857 1
0.142857142857143 0.142857142857143 -0.714285714285714 1
0 0.285714285714286 -0.571428571428571 1
0 0.285714285714286 -0.285714285714286 1
-0.142857142857143 0.428571428571428 -0.142857142857143 1
-0.285714285714286 0.571428571428571 0 1
-0.428571428571429 0.714285714285714 0.142857142857143 1
0.428571428571429 -0.142857142857143 -0.714285714285714 1
0.285714285714286 0 -0.571428571428571 1
0.142857142857143 0.142857142857143 -0.428571428571428 1
0.285714285714286 0.285714285714286 -0.285714285714286 1
0.142857142857143 0.428571428571429 -0.142857142857143 1
0 0.571428571428571 0 1
-0.142857142857143 0.714285714285714 0.142857142857143 1
-0.285714285714286 0.857142857142857 0.285714285714286 1
0.571428571428571 0 -0.571428571428571 1
0.428571428571428 0.142857142857143 -0.428571428571428 1
0.428571428571429 0.142857142857143 -0.142857142857143 1
0.285714285714286 0.285714285714286 0 1
0.142857142857143 0.428571428571429 0.142857142857143 1
-5.55111512312578e-17 0.571428571428571 0.285714285714286 1
-0.142857142857143 0.714285714285714 0.428571428571429 1
0.714285714285714 -0.142857142857143 -0.428571428571428 1
0.571428571428571 0 -0.285714285714286 1
0.571428571428571 0 0 1
0.428571428571429 0.142857142857143 0.142857142857143 1
0.285714285714286 0.285714285714286 0.285714285714286 1
0.142857142857143 0.428571428571429 0.428571428571429 1
-1.11022302462516e-16 0.571428571428572 0.571428571428572 1
0.857142857142857 -0.285714285714286 -0.285714285714286 1
0.714285714285714 -0.142857142857143 -0.142857142857143 1
0.714285714285714 -0.142857142857143 0.142857142857143 1
0.571428571428571 -5.55111512312578e-17 0.285714285714286 1
0.428571428571429 0.142857142857143 0.428571428571429 1
0.285714285714286 0.285714285714286 0.571428571428572 1
0.142857142857143 0.428571428571429 0.714285714285714 1
-1.11022302462516e-16 0.571428571428572 0.857142857142857 1
0.857142857142857 -0.285714285714286 0 1
0.857142857142857 -0.285714285714286 0.285714285714286 1
0.714285714285714 -0.142857142857143 0.428571428571429 1
0.571428571428572 -1.11022302462516e-16 0.571428571428572 1
0.428571428571429 0.142857142857143 0.714285714285714 1
0.285714285714286 0.285714285714286 0.857142857142857 1
-0.857142857142857 -0.571428571428571 4.44089209850063e-16 1
0 0.571428571428571 -0.857142857142857 1
0 0.571428571428571 -0.571428571428571 1
-0.142857142857143 0.714285714285714 -0.428571428571428 1
-0.285714285714286 0.857142857142857 -0.285714285714286 1
0.571428571428572 -1.11022302462516e-16 0.857142857142857 1
-0.571428571428571 -0.857142857142857 4.44089209850063e-16 1
0.285714285714286 0.285714285714286 -0.857142857142857 1
0.142857142857143 0.428571428571428 -0.714285714285714 1
0.142857142857143 0.428571428571428 -0.428571428571428 1
0 0.571428571428571 -0.285714285714286 1
-0.142857142857143 0.714285714285714 -0.142857142857143 1
-0.285714285714286 0.857142857142857 0 1
0.571428571428571 0 -0.857142857142857 1
0.428571428571428 0.142857142857143 -0.714285714285714 1
0.285714285714286 0.285714285714286 -0.571428571428571 1
0.428571428571429 0.428571428571429 -0.428571428571429 1
0.285714285714286 0.571428571428571 -0.285714285714286 1
0.142857142857143 0.714285714285714 -0.142857142857143 1
0 0.857142857142857 0 1
-0.142857142857143 1 0.142857142857143 1
-0.285714285714286 -0.857142857142857 0.285714285714286 1
0.571428571428571 0.285714285714286 -0.571428571428571 1
0.571428571428571 0.285714285714286 -0.285714285714286 1
0.428571428571429 0.428571428571429 -0.142857142857143 1
0.285714285714286 0.571428571428571 -5.55111512312578e-17 1
0.142857142857143 0.714285714285714 0.142857142857143 1
-5.55111512312578e-17 0.857142857142857 0.285714285714286 1
0.857142857142857 2.22044604925031e-16 -0.571428571428571 1
0.714285714285714 0.142857142857143 -0.428571428571429 1
0.714285714285714 0.142857142857143 -0.142857142857143 1
0.571428571428571 0.285714285714286 -5.55111512312578e-17 1
0.428571428571429 0.428571428571429 0.142857142857143 1
0.285714285714286 0.571428571428572 0.285714285714286 1
0.142857142857143 0.714285714285714 0.428571428571429 1
-1.11022302462516e-16 0.857142857142857 0.571428571428571 1
0.857142857142857 0 -0.285714285714286 1
0.857142857142857 0 0 1
0.714285714285714 0.142857142857143 0.142857142857143 1
0.571428571428572 0.285714285714286 0.285714285714286 1
0.428571428571429 0.428571428571429 0.428571428571429 1
0.285714285714286 0.571428571428572 0.571428571428571 1
-0.857142857142857 -0.285714285714286 -0.285714285714286 1
-1 -0.142857142857143 -0.142857142857143 1
1 -0.142857142857143 0.142857142857143 1
0.857142857142857 -5.55111512312578e-17 0.285714285714286 1
0.714285714285714 0.142857142857143 0.428571428571429 1
0.571428571428572 0.285714285714286 0.571428571428571 1
-0.571428571428571 -0.571428571428571 -0.285714285714286 1
-0.714285714285714 -0.428571428571428 -0.142857142857143 1
-0.857142857142857 -0.285714285714286 2.22044604925031e-16 1
-0.857142857142857 -0.285714285714286 0.285714285714286 1
2.22044604925031e-16 0.857142857142857 -0.571428571428571 1
0.857142857142857 -1.11022302462516e-16 0.571428571428571 1
-0.285714285714286 -0.857142857142857 -0.285714285714286 1
-0.428571428571428 -0.714285714285714 -0.142857142857143 1
-0.571428571428571 -0.571428571428571 2.22044604925031e-16 1
-0.714285714285714 -0.428571428571429 0.142857142857143 1
0.285714285714286 0.571428571428571 -0.571428571428571 1
0.142857142857143 0.714285714285714 -0.428571428571429 1
0 0.857142857142857 -0.285714285714286 1
-0.142857142857143 -1 -0.142857142857143 1
-0.285714285714286 -0.857142857142857 2.22044604925031e-16 1
-0.428571428571429 -0.714285714285714 0.142857142857143 1
-0.571428571428571 -0.571428571428571 0.285714285714286 1
-0.428571428571428 -0.428571428571428 0.428571428571428 1
-0.571428571428571 -0.285714285714286 0.571428571428571 1
0.285714285714286 0.857142857142857 -0.285714285714286 1
0.142857142857143 1 -0.142857142857143 1
0 -0.857142857142857 0 1
-0.142857142857143 -0.714285714285714 0.142857142857143 1
-0.285714285714286 -0.571428571428571 0.285714285714286 1
-0.285714285714286 -0.571428571428571 0.571428571428571 1
0.571428571428572 0.571428571428572 -0.285714285714286 1
0.428571428571429 0.714285714285714 -0.142857142857143 1
0.285714285714286 0.857142857142857 -1.11022302462516e-16 1
0.142857142857143 -1 0.142857142857143 1
-1.11022302462516e-16 -0.857142857142857 0.285714285714286 1
-0.142857142857143 -0.714285714285714 0.428571428571428 1
0.857142857142857 0.285714285714286 -0.285714285714286 1
0.714285714285714 0.428571428571429 -0.142857142857143 1
0.571428571428572 0.571428571428572 -1.11022302462516e-16 1
0.428571428571429 0.714285714285714 0.142857142857143 1
0.285714285714286 0.857142857142857 0.285714285714286 1
-0.857142857142857 2.22044604925031e-16 -0.571428571428572 1
0 -0.857142857142857 0.571428571428571 1
1 0.142857142857143 -0.142857142857143 1
0.857142857142857 0.285714285714286 -1.11022302462516e-16 1
0.714285714285714 0.428571428571429 0.142857142857143 1
0.571428571428572 0.571428571428572 0.285714285714286 1
-0.571428571428571 -0.285714285714286 -0.571428571428572 1
-0.714285714285714 -0.142857142857143 -0.428571428571428 1
-0.857142857142857 0 -0.285714285714286 1
-0.857142857142857 0 0 1
-1 0.142857142857143 0.142857142857143 1
0.857142857142857 0.285714285714286 0.285714285714286 1
-0.285714285714286 -0.571428571428571 -0.571428571428572 1
-0.428571428571428 -0.428571428571428 -0.428571428571428 1
-0.571428571428571 -0.285714285714286 -0.285714285714286 1
-0.714285714285714 -0.142857142857143 -0.142857142857143 1
-0.714285714285714 -0.142857142857143 0.142857142857143 1
-0.857142857142857 -1.11022302462516e-16 0.285714285714286 1
0 -0.857142857142857 -0.571428571428572 1
-0.142857142857143 -0.714285714285714 -0.428571428571428 1
-0.285714285714286 -0.571428571428571 -0.285714285714286 1
-0.428571428571428 -0.428571428571428 -0.142857142857143 1
-0.571428571428571 -0.285714285714286 0 1
-0.571428571428571 -0.285714285714286 0.285714285714286 1
-0.714285714285714 -0.142857142857143 0.428571428571428 1
-0.857142857142857 0 0.571428571428571 1
0 -0.857142857142857 -0.285714285714286 1
-0.142857142857143 -0.714285714285714 -0.142857142857143 1
-0.285714285714286 -0.571428571428571 0 1
-0.428571428571428 -0.428571428571428 0.142857142857143 1
-0.285714285714286 -0.285714285714286 0.285714285714286 1
-0.428571428571428 -0.142857142857143 0.428571428571428 1
-0.571428571428571 0 0.571428571428571 1
0.285714285714286 -0.857142857142857 -0.285714285714286 1
0.142857142857143 -0.714285714285714 -0.142857142857143 1
0 -0.571428571428571 0 1
-0.142857142857143 -0.428571428571428 0.142857142857143 1
-0.142857142857143 -0.428571428571428 0.428571428571428 1
-0.285714285714286 -0.285714285714286 0.571428571428571 1
-0.428571428571428 -0.142857142857143 0.714285714285714 1
-0.571428571428571 2.22044604925031e-16 0.857142857142857 1
0.285714285714286 -0.857142857142857 0 1
0.142857142857143 -0.714285714285714 0.142857142857143 1
0 -0.571428571428571 0.285714285714286 1
0 -0.571428571428571 0.571428571428571 1
-0.142857142857143 -0.428571428571428 0.714285714285714 1
-0.285714285714286 -0.285714285714286 0.857142857142857 1
0.571428571428572 0.857142857142857 -1.11022302462516e-16 1
-0.571428571428571 2.22044604925031e-16 -0.857142857142857 1
0.285714285714286 -0.857142857142857 0.285714285714286 1
0.142857142857143 -0.714285714285714 0.428571428571428 1
-0.857142857142857 0.285714285714286 -0.285714285714286 1
2.22044604925031e-16 -0.571428571428571 0.857142857142857 1
0.857142857142857 0.571428571428572 -1.11022302462516e-16 1
-0.285714285714286 -0.285714285714286 -0.857142857142857 1
-0.428571428571428 -0.142857142857143 -0.714285714285714 1
-0.571428571428571 2.22044604925031e-16 -0.571428571428571 1
-0.714285714285714 0.142857142857143 -0.428571428571429 1
-0.714285714285714 0.142857142857143 -0.142857142857143 1
-0.857142857142857 0.285714285714286 0 1
0 -0.571428571428571 -0.857142857142857 1
-0.142857142857143 -0.428571428571428 -0.714285714285714 1
-0.285714285714286 -0.285714285714286 -0.571428571428571 1
-0.428571428571428 -0.142857142857143 -0.428571428571428 1
-0.571428571428571 0 -0.285714285714286 1
-0.571428571428571 0 0 1
-0.714285714285714 0.142857142857143 0.142857142857143 1
-0.857142857142857 0.285714285714286 0.285714285714286 1
0 -0.571428571428571 -0.571428571428571 1
-0.142857142857143 -0.428571428571428 -0.428571428571428 1
-0.285714285714286 -0.285714285714286 -0.285714285714286 1
-0.428571428571428 -0.142857142857143 -0.142857142857143 1
-0.428571428571428 -0.142857142857143 0.142857142857143 1
-0.571428571428571 0 0.285714285714286 1
-0.714285714285714 0.142857142857143 0.428571428571428 1
0.142857142857143 -0.714285714285714 -0.428571428571429 1
0 -0.571428571428571 -0.285714285714286 1
-0.142857142857143 -0.428571428571428 -0.142857142857143 1
-0.285714285714286 -0.285714285714286 0 1
-0.142857142857143 -0.142857142857143 0.142857142857143 1
-0.285714285714286 0 0.285714285714286 1
-0.428571428571428 0.142857142857143 0.428571428571428 1
-0.571428571428571 0.285714285714286 0.571428571428571 1
0.285714285714286 -0.571428571428571 -0.285714285714286 1
0.142857142857143 -0.428571428571428 -0.142857142857143 1
0 -0.285714285714286 0 1
0 -0.285714285714286 0.285714285714286 1
-0.142857142857143 -0.142857142857143 0.428571428571428 1
-0.285714285714286 0 0.571428571428571 1
-0.428571428571429 0.142857142857143 0.714285714285714 1
0.428571428571429 -0.714285714285714 -0.142857142857143 1
0.285714285714286 -0.571428571428571 0 1
0.142857142857143 -0.428571428571428 0.142857142857143 1
0.142857142857143 -0.428571428571428 0.428571428571428 1
0 -0.285714285714286 0.571428571428571 1
-0.142857142857143 -0.142857142857143 0.714285714285714 1
-0.285714285714286 0 0.857142857142857 1
0.571428571428571 -0.857142857142857 0 1
0.428571428571428 -0.714285714285714 0.142857142857143 1
0.285714285714286 -0.571428571428571 0.285714285714286 1
0.285714285714286 -0.571428571428571 0.571428571428571 1
0.142857142857143 -0.428571428571429 0.714285714285714 1
0 -0.285714285714286 0.857142857142857 1
-0.142857142857143 -0.142857142857143 -1 1
-0.285714285714286 0 -0.857142857142857 1
-0.428571428571429 0.142857142857143 -0.714285714285714 1
-0.571428571428571 0.285714285714286 -0.571428571428571 1
-0.571428571428571 0.285714285714286 -0.285714285714286 1
-0.714285714285714 0.428571428571429 -0.142857142857143 1
-0.857142857142857 0.571428571428571 0 1
0 -0.285714285714286 -0.857142857142857 1
-0.142857142857143 -0.142857142857143 -0.714285714285714 1
-0.285714285714286 0 -0.571428571428571 1
-0.428571428571428 0.142857142857143 -0.428571428571428 1
-0.428571428571428 0.142857142857143 -0.142857142857143 1
-0.571428571428571 0.285714285714286 0 1
-0.714285714285714 0.428571428571428 0.142857142857143 1
0.142857142857143 -0.428571428571429 -0.714285714285714 1
0 -0.285714285714286 -0.571428571428571 1
-0.142857142857143 -0.142857142857143 -0.428571428571428 1
-0.285714285714286 0 -0.285714285714286 1
-0.285714285714286 0 0 1
-0.428571428571428 0.142857142857143 0.142857142857143 1
-0.571428571428571 0.285714285714286 0.285714285714286 1
0.285714285714286 -0.571428571428571 -0.571428571428571 1
0.142857142857143 -0.428571428571428 -0.428571428571428 1
0 -0.285714285714286 -0.285714285714286 1
-0.142857142857143 -0.142857142857143 -0.142857142857143 1
