1024
40
0.125 0.125 0.125 8
0 0 0.125 6
0.75 0.75 1.125 24
0.625 0.625 1.125 24
0.5 0.5 1.125 24
0.375 0.375 1.125 24
0.25 0.25 1.125 24
0.125 0.125 1.125 24
0 0 1.125 6
0.75 0.875 1 24
0.625 0.75 1 24
0.5 0.625 1 24
0.375 0.5 1 24
0.25 0.375 1 24
0.125 0.25 1 24
0 0.125 1 12
0.625 0.875 0.875 24
0.5 0.75 0.875 48
0.375 0.625 0.875 48
0.25 0.5 0.875 48
0.125 0.375 0.875 48
0 0.25 0.875 24
0.375 0.75 0.75 24
0.25 0.625 0.75 48
0 0.375 0.75 24
-0.125 0.25 0.75 48
-0.25 0.25 1.625 24
-0.25 0.375 0.5 48
-0.375 0.375 0.375 8
-0.25 0.5 1.375 48
-0.375 0.375 1.375 24
-0.25 0.875 1 24
-0.375 0.75 1 24
-0.375 0.875 0.875 24
1 1 -0.625 6
0.5 0.5 1.375 24
0 0 1.375 6
0.5 0.875 1 24
0.125 0.5 1 24
0 0.375 1 12
