512
29
0 0 0 1
0.875 0.875 -0.875 8
0.75 0.75 -0.75 8
0.625 0.625 -0.625 8
0.5 0.5 -0.5 4
1.75 0 0 6
1.625 -0.125 0.125 24
1.5 -0.25 0.25 24
1.375 -0.375 0.375 24
1.25 -0.5 0.5 24
1.125 -0.625 0.625 24
1 -0.75 0.75 12
1.5 0 0 6
1.375 -0.125 0.125 24
1.25 -0.25 0.25 24
1.125 -0.375 0.375 24
1 -0.5 0.5 12
1.25 0 0 6
1.125 -0.125 0.125 24
1 -0.25 0.25 12
1 0 0 3
1.5 0 0.25 24
1.375 -0.125 0.375 48
1.25 -0.25 0.5 24
1.25 0 0.25 24
1.125 -0.125 0.375 48
1 -0.25 0.5 24
1 0 0.25 12
1 0 0.5 6
